Site,age,sex,sexpref,romantic,monogamous,heightm,weightkg,health,meds,gluctot,artgluctot,smoke,cigs,eatdrink,exercise,Temperature_t1,Temperature_t2,avgtemp,DEQ,longitude,AvgHumidity,mintemp,endtime,language,langfamily,SNI1,SNI2,SNI3,SNI4,SNI5,SNI6,SNI7,SNI8,SNI9,SNI10,SNI11,SNI12,SNI13,SNI14,SNI15,SNI16,SNI17,SNI18,SNI19,SNI20,SNI21,SNI22,SNI23,SNI24,SNI25,SNI26,SNI27,SNI28,SNI29,SNI30,SNI31,SNI32,scontrol1,scontrol2,scontrol3,scontrol4,scontrol5,scontrol6,scontrol7,scontrol8,scontrol9,scontrol10,scontrol11,scontrol12,scontrol13,stress1,stress2,stress3,stress4,stress5,stress6,stress7,stress8,stress9,stress10,stress11,stress12,stress13,stress14,phone1,phone2,phone3,phone4,phone5,phone6,phone7,phone8,phone9,onlineid1,onlineid2,onlineid3,onlineid4,onlineid5,onlineid6,onlineid7,onlineid8,onlineid9,onlineid10,onlineide11,ECR1,ECR2,ECR3,ECR4,ECR5,ECR6,ECR7,ECR8,ECR9,ECR10,ECR11,ECR12,ECR13,ECR14,ECR15,ECR16,ECR17,ECR18,ECR19,ECR20,ECR21,ECR22,ECR23,ECR24,ECR25,ECR26,ECR27,ECR28,ECR29,ECR30,ECR31,ECR32,ECR33,ECR34,ECR35,ECR36,HOME1,HOME2,HOME3,HOME4,HOME5,HOME6,HOME7,HOME8,HOME9,SNS1,SNS2,SNS3,SNS4,SNS5,SNS6,SNS7,ALEX1,ALEX2,ALEX3,ALEX4,ALEX5,ALEX6,ALEX7,ALEX8,ALEX9,ALEX10,ALEX11,ALEX12,ALEX13,ALEX14,ALEX15,ALEX16,KAMF1,KAMF2,KAMF3,KAMF4,KAMF5,KAMF6,KAMF7,STRAQ_1,STRAQ_2,STRAQ_3,STRAQ_4,STRAQ_5,STRAQ_6,STRAQ_7,STRAQ_8,STRAQ_9,STRAQ_10,STRAQ_11,STRAQ_12,STRAQ_13,STRAQ_14,STRAQ_15,STRAQ_16,STRAQ_17,STRAQ_18,STRAQ_19,STRAQ_20,STRAQ_21,STRAQ_22,STRAQ_23,STRAQ_24,STRAQ_25,STRAQ_26,STRAQ_27,STRAQ_28,STRAQ_29,STRAQ_30,STRAQ_31,STRAQ_32,STRAQ_33,STRAQ_34,STRAQ_35,STRAQ_36,STRAQ_37,STRAQ_38,STRAQ_39,STRAQ_40,STRAQ_41,STRAQ_42,STRAQ_43,STRAQ_44,STRAQ_45,STRAQ_46,STRAQ_47,STRAQ_48,STRAQ_49,STRAQ_50,STRAQ_51,STRAQ_52,STRAQ_53,STRAQ_54,STRAQ_55,STRAQ_56,STRAQ_57
Tsinghua,1922,2,1,2,6,1.6,53,3,2,0,0,2,0,1,2,36.8,36.7,36.75,26.88780212,114.5260925,64,12,11:28:28,7,3,2,1,0,1,1,5,0,6,2,7,3,1,1,2,5,3,1,2,3,2,1,1,Ê®ÁùµãæäÕ¾,NA,NA,NA,NA,3,NA,NA,NA,NA,3,4,4,4,4,4,2,2,4,4,4,4,4,2,4,5,3,3,1,4,2,2,3,1,5,2,1,2,3,2,3,3,2,4,4,4,4,4,2,4,2,2,2,2,5,1,2,4,2,2,2,5,2,2,2,5,2,2,2,4,2,2,5,5,2,5,2,6,5,4,5,5,2,5,2,3,5,2,5,4,6,6,2,4,4,4,4,3,3,2,2,3,3,2,4,6,7,6,6,2,2,2,2,2,2,2,2,2,1,2,2,2,2,2,2,2,2,4,2,2,2,2,2,4,5,3,1,2,2,4,3,4,2,1,4,2,3,2,2,4,3,2,4,4,4,2,3,4,4,3,4,4,3,2,4,1,2,4,2,2,1,5,3,4,3,2,2,4,2,3,2,4,2,2,3,2,2,4,2
Oxford,1940,1,1,1,7,1.778,90,4,2,0,0,2,NA,1,2,34.2,36.6,35.4,51.75,-1.25,74,2.777777778,08:08:48,5,1,3,8,4,1,NA,2,2,1,NA,8,5,2,1,1,NA,2,1,8,1,1,NA,2,Pensioners,Men/women with foreign spouses not in UK,NA,NA,NA,25,30,NA,NA,NA,3,5,2,3,2,2,5,3,4,5,5,3,4,1,1,1,1,1,1,1,1,1,1,1,5,2,1,1,1,1,1,1,1,1,1,1,3,1,1,1,1,1,1,1,1,1,1,1,1,1,1,1,1,1,1,1,1,1,1,1,4,1,1,1,1,7,1,3,1,1,1,1,1,1,4,4,4,2,1,4,4,1,1,5,3,3,3,3,1,1,1,1,6,5,5,2,2,5,5,1,1,1,1,1,1,1,1,1,1,1,2,3,2,3,2,1,1,1,1,1,1,1,5,1,3,4,5,2,3,2,4,1,1,5,5,1,1,2,3,1,3,3,4,4,4,3,1,5,1,3,3,1,1,1,1,2,1,5,3,5,1,3,1,5,1,1,5,3,3,1,1,1,1,3,1,1,1,5,1
Oxford,1945,1,1,1,6,1.905,82.72727273,3,1,0,8,2,NA,1,2,35,35.2,35.1,51.75,-1.25,89,-1.666666667,08:19:48,5,1,1,6,4,2,2,1,NA,1,NA,3,2,1,NA,1,NA,1,NA,NA,4,1,NA,1,NA,NA,NA,NA,NA,NA,NA,NA,NA,NA,4,3,4,2,2,2,3,2,3,5,3,3,4,3,3,3,2,2,2,2,2,1,2,3,3,1,2,2,2,2,1,2,1,2,2,2,1,2,1,1,1,1,1,2,2,1,1,5,3,3,2,4,3,2,2,3,4,5,4,2,2,2,5,3,2,2,2,2,2,2,1,1,2,3,2,5,2,3,2,4,4,3,6,5,3,4,4,3,4,4,5,4,6,5,5,5,5,5,5,2,2,4,2,2,2,2,2,2,1,2,3,2,2,2,2,5,5,5,2,3,2,1,1,3,2,5,4,3,3,5,5,3,3,1,3,2,4,1,4,3,4,4,4,5,3,5,4,4,1,4,4,1,1,5,2,3,4,5,4,5,3,2,3,4,1,2,2,3,2,2,3,2,4,1,1,1,2,4,1
Oxford,1948,2,1,1,7,1.5748,79,2,1,3,0,2,NA,1,2,36.1,35.8,35.95,51.75,-1.25,88,-2.222222222,09:12:23,5,1,1,3,3,1,NA,1,NA,4,3,1,1,2,8,1,NA,1,NA,NA,3,2,8,1,NA,NA,NA,NA,NA,NA,NA,NA,NA,NA,3,2,4,4,2,3,4,2,2,4,4,4,2,2,2,3,2,2,1,3,2,2,2,3,3,3,3,1,3,2,4,1,2,2,4,4,4,1,1,2,1,1,1,1,1,1,1,1,1,1,1,2,2,2,1,7,1,1,2,1,1,1,2,4,7,1,1,1,7,7,3,2,2,6,1,1,1,1,1,1,2,1,2,5,5,5,5,5,4,3,4,4,3,6,6,5,4,3,2,3,4,1,2,4,2,3,4,2,1,2,2,2,2,4,2,4,4,4,4,5,1,2,1,4,4,5,1,2,2,2,4,5,2,2,4,5,2,1,2,5,2,4,5,5,2,4,4,5,2,4,5,4,1,4,2,3,5,3,4,1,2,4,2,4,2,2,2,4,2,1,3,4,4,1,4,5,4,5,1
Chile,1948,2,1,1,6,1.54,63.5,4,1,0,0,2,1,1,2,35.72222222,36.44444444,36.08333333,42.07719421,-87.72859955,79,1,11:53:12,2,1,5,4,4,1,1,1,NA,6,4,7,5,1,NA,1,NA,1,NA,NA,4,1,NA,1,NA,NA,NA,NA,NA,NA,NA,NA,NA,NA,2,2,3,4,4,4,3,1,5,4,4,4,4,2,2,2,3,2,1,2,2,2,3,3,3,2,2,2,2,2,2,2,1,2,4,2,3,3,3,3,3,1,3,3,3,1,1,2,2,4,2,5,6,1,1,4,2,2,5,4,1,1,2,2,5,2,2,2,2,2,1,2,2,4,1,2,2,2,1,6,5,1,5,5,5,5,5,5,3,2,4,3,3,4,5,4,3,3,3,1,1,1,1,1,1,2,1,2,1,1,2,2,2,1,4,4,5,5,3,3,2,1,2,4,4,3,3,4,1,3,3,4,2,2,4,3,4,3,5,1,4,3,4,2,4,4,4,4,1,3,4,1,1,1,1,3,3,2,2,3,2,3,3,4,2,3,2,3,4,4,3,4,3,2,4,3,3,3,1
Bamberg,1951,1,1,1,7,1.78,105,4,2,0,0,2,NA,1,2,35.3,35.9,35.6,51.65660095,6.965698242,59,2,09:58:08,1,1,1,3,3,1,NA,1,NA,7,2,7,2,2,1,1,NA,1,NA,NA,2,2,8,2,Telefonseelsorge,Seniorenheim,NA,NA,NA,7,2,NA,NA,NA,4,4,3,2,2,2,2,4,3,4,4,5,2,2,3,3,3,1,2,2,3,3,2,3,2,1,2,2,4,3,4,2,1,2,3,3,1,2,1,1,1,1,1,1,1,1,1,1,2,1,1,1,3,1,1,1,2,1,6,5,1,1,1,2,1,1,2,7,2,1,1,1,2,2,2,6,2,2,1,7,6,3,5,5,5,5,4,2,5,4,5,4,7,3,5,4,2,3,3,1,2,1,2,1,3,4,2,4,2,2,4,4,1,1,1,4,7,6,1,6,3,7,5,4,5,3,1,2,1,5,2,5,4,1,5,5,1,1,1,4,5,4,4,5,4,4,4,2,1,3,4,1,1,5,4,1,4,4,2,4,4,1,1,3,1,1,1,3,4,2,1,1,1,1,1,1,1,3,1
Oxford,1952,1,1,1,4,1.6256,72.27272727,3,1,1,3,2,NA,1,2,34.8,36,35.4,51.75,-1.25,74,2.777777778,09:04:40,5,1,5,2,2,1,NA,1,NA,1,NA,3,1,1,NA,1,NA,1,NA,NA,2,1,NA,2,badminton,bridge 1,bridge 2,bridge 3,badminton 2,12,5,6,1,4,2,2,4,1,2,2,2,2,3,4,4,2,3,3,4,3,3,4,3,3,3,3,3,3,2,2,2,3,4,1,4,2,2,2,3,2,4,4,4,3,4,2,2,2,4,2,3,3,5,4,5,6,5,5,2,5,4,5,3,3,3,4,4,3,2,3,2,4,2,3,2,2,3,2,2,3,3,2,2,3,3,3,5,4,3,4,4,3,4,5,4,4,5,4,5,5,5,5,5,2,2,2,4,2,2,2,3,2,2,2,2,2,3,3,2,4,4,2,3,2,2,2,2,4,3,4,3,3,2,2,3,2,2,3,2,2,2,2,2,3,4,4,4,3,4,4,3,4,3,3,4,3,2,3,2,2,3,2,3,2,2,4,2,4,2,2,2,2,2,3,4,3,2,4,3,2,2,3,2
Oxford,1952,2,1,2,6,1.651,95.45454545,2,2,0.2,0,2,NA,1,2,35.1,36.5,35.8,51.75,-1.25,74,2.777777778,08:31:30,5,1,4,3,3,2,2,1,NA,2,2,5,3,1,NA,1,NA,1,NA,NA,3,1,NA,2,street band,samba band,NA,NA,NA,10,10,NA,NA,NA,2,2,2,4,2,2,3,2,3,4,3,2,2,2,3,3,2,3,3,3,3,2,3,3,4,2,3,3,3,3,3,3,3,3,3,3,3,3,3,3,3,3,3,3,3,3,3,5,5,5,2,4,2,3,5,5,2,6,3,4,2,3,4,4,2,2,3,5,2,4,3,3,2,5,2,2,3,2,2,5,6,2,4,5,5,5,5,5,5,3,5,5,4,2,2,2,2,2,2,1,2,1,2,2,1,1,1,2,2,1,2,1,1,2,1,4,6,4,4,4,3,3,2,4,4,5,2,2,3,2,2,4,1,3,4,4,4,2,2,3,2,3,5,4,4,4,3,3,3,4,3,3,3,2,3,2,4,4,2,4,2,2,3,3,1,3,2,4,2,3,2,4,2,2,3,3,4,1,2
Oxford,1952,2,1,2,7,1.6256,69.85,3,2,0,0,2,NA,1,2,35.3,36.4,35.85,51.75,-1.25,71,1.666666667,08:45:54,5,1,4,2,2,1,NA,1,NA,1,NA,7,3,1,NA,2,4,2,1,7,4,1,NA,1,NA,NA,NA,NA,NA,NA,NA,NA,NA,NA,4,4,4,2,3,4,2,4,4,2,5,3,4,5,3,4,3,3,3,3,5,3,3,4,5,2,5,1,1,1,1,1,1,1,1,1,1,1,1,1,1,1,1,1,2,1,1,5,5,5,5,4,5,5,5,3,4,3,4,4,5,5,4,6,5,3,3,6,5,5,3,5,4,5,4,3,3,4,3,5,5,3,4,5,3,4,5,3,5,5,5,5,7,5,5,5,7,7,7,3,3,4,3,4,4,3,3,2,3,4,2,2,2,2,2,5,6,4,6,3,2,1,3,3,3,5,4,2,2,2,5,2,1,3,1,2,2,1,4,2,3,3,5,4,3,3,4,3,3,4,3,3,3,3,4,4,4,4,3,4,2,3,3,4,2,3,4,1,4,3,3,3,3,3,3,3,3,1,3
Oslo,1953,2,1,2,7,1.55,41,5,2,0,0,2,NA,1,2,35.1,36.1,35.6,59.91270447,10.74609375,76,1,09:57:08,4,1,4,2,2,2,2,5,NA,3,1,2,2,1,NA,1,NA,2,1,1,1,2,1,1,NA,NA,NA,NA,NA,NA,NA,NA,NA,NA,3,3,3,2,3,2,5,1,4,4,2,3,4,2,3,3,1,1,1,1,2,1,2,3,3,2,1,2,2,1,1,4,2,2,3,4,4,4,4,4,4,1,1,1,2,1,4,5,2,3,2,3,5,1,1,2,2,2,5,2,5,1,5,1,2,7,2,5,2,2,2,2,2,3,2,2,3,2,2,4,4,2,5,5,5,5,5,2,5,5,5,5,5,4,2,5,3,3,2,1,1,1,2,2,1,1,2,1,3,1,1,1,1,2,1,5,8,7,1,3,2,5,2,2,4,4,4,3,1,3,4,2,2,2,2,2,4,2,2,2,3,2,4,3,4,3,4,4,2,4,3,2,3,2,3,2,1,4,1,2,2,1,3,5,1,1,1,2,5,3,3,4,2,5,1,1,1,5,1
Chile,1953,2,1,1,7,1.63,55,2,2,1,0,1,NA,1,2,36.2,35.5,35.85,33.44999695,-70.66670227,73,11,11:35:33,2,1,1,2,2,1,1,1,NA,6,4,7,6,1,NA,1,NA,5,1,5,1,1,NA,2,Grupo de teatro,NA,NA,NA,NA,4,NA,NA,NA,NA,2,2,4,4,4,4,3,1,4,3,2,3,5,2,3,3,2,4,3,2,3,4,3,3,3,2,3,4,2,2,2,4,2,3,3,3,4,4,4,3,2,4,4,2,4,3,4,3,5,7,2,2,6,5,1,2,2,2,2,2,2,4,1,2,1,1,1,6,2,2,2,4,2,1,1,2,3,1,5,6,7,1,2,5,4,5,5,3,5,5,5,5,4,5,4,6,2,2,2,2,1,2,1,1,2,4,2,3,2,3,1,2,1,2,1,4,6,6,7,7,6,5,1,5,3,5,2,5,5,3,3,5,5,2,4,5,5,3,4,4,3,4,4,4,2,5,5,4,3,3,4,3,2,3,3,4,4,4,2,2,3,4,3,2,3,2,4,4,2,4,4,4,4,3,4,4,4,2,2
Oxford,1953,1,3,2,1,1.778,70,3,2,0,0,1,10,1,2,35.6,36.4,36,51.75,-1.25,74,2.777777778,09:16:12,5,1,3,3,2,4,1,1,NA,1,NA,3,2,1,NA,1,NA,1,NA,NA,1,1,NA,1,NA,NA,NA,NA,NA,NA,NA,NA,NA,NA,4,2,5,4,2,4,2,4,4,5,4,4,4,3,3,3,2,2,2,2,3,3,2,3,4,2,3,1,1,1,1,1,1,1,1,1,4,4,3,2,3,1,1,1,3,1,2,4,1,1,1,1,3,2,4,6,5,1,2,5,4,1,4,6,1,6,5,6,6,5,6,6,5,7,3,4,7,5,6,3,5,4,6,4,3,4,2,2,3,3,4,3,4,4,3,2,4,2,3,4,2,4,3,4,4,4,2,3,2,4,2,2,2,4,2,5,6,4,5,5,5,5,1,4,1,5,5,1,4,5,5,1,2,2,1,1,4,1,5,3,4,2,5,5,4,4,4,3,1,3,3,1,3,5,3,5,5,4,4,4,1,3,4,2,2,2,5,2,5,2,4,2,4,5,2,4,5,1,1
Oxford,1953,2,1,1,6,1.6256,63.63636364,3,2,1,0,2,NA,1,2,36.5,36.4,36.45,51.75,-1.25,74,2.777777778,08:02:17,5,1,1,4,4,1,NA,1,NA,1,NA,4,4,2,6,2,8,2,8,3,3,1,NA,2,WI,Cycling group,tai chi class,NA,NA,10,5,6,NA,NA,3,2,3,5,2,2,1,2,2,4,4,5,1,4,2,3,3,2,2,2,3,2,2,3,4,2,1,2,2,2,2,2,2,2,2,2,2,2,2,2,2,2,2,2,2,2,2,3,2,3,4,2,5,2,5,3,3,5,2,1,4,2,3,6,3,2,2,3,2,2,2,1,3,3,2,2,2,2,1,2,2,2,5,5,5,5,5,5,5,2,5,5,5,4,3,4,4,4,4,2,3,1,2,2,2,3,1,2,1,2,2,2,1,4,2,5,8,6,6,6,2,2,1,4,2,5,5,5,4,2,5,1,2,2,2,2,4,2,4,4,3,5,3,5,4,5,5,5,3,4,4,3,1,3,4,4,2,4,2,4,4,2,2,1,2,4,1,2,2,4,4,4,2,4,4,4,4,2,4
Kassel,1955,1,1,1,3,1.78,73,3,1,0,0,2,NA,1,2,36.3,36.3,36.3,48.40150452,9.992706299,89,1,10:41:03,1,1,4,4,3,2,2,1,NA,8,4,3,3,1,NA,1,NA,3,4,8,1,1,NA,1,NA,NA,NA,NA,NA,NA,NA,NA,NA,NA,5,4,5,5,2,4,3,5,2,2,4,4,2,1,3,2,2,2,2,2,2,2,2,3,4,2,1,4,4,4,4,3,4,4,2,4,5,5,5,5,4,3,4,3,2,2,5,6,4,2,4,5,4,4,3,2,2,6,5,6,2,2,2,3,1,6,5,6,2,5,2,2,2,2,3,6,5,7,4,7,7,3,6,4,5,5,4,2,2,3,4,2,7,5,6,6,6,5,5,2,2,1,2,1,2,2,2,1,1,2,2,1,1,4,2,5,5,5,2,3,2,4,5,2,1,4,3,4,4,4,4,3,2,1,1,1,4,2,4,2,2,4,4,3,3,4,4,2,3,2,2,3,2,3,3,4,4,4,4,3,2,2,3,4,1,2,1,4,2,4,4,2,4,2,2,2,3,1,1
Chile,1957,1,1,1,7,1.76,80.6,2,1,10,3,1,NA,1,2,36.2,36,36.1,33.44999695,-70.66670227,55,12,10:08:39,2,1,1,4,4,2,2,2,1,5,1,8,4,2,1,2,8,5,8,8,1,1,NA,1,NA,NA,NA,NA,NA,NA,NA,NA,NA,NA,4,5,5,4,5,4,5,4,5,2,4,5,4,2,2,4,2,3,2,2,2,2,2,2,4,2,2,2,1,1,4,1,1,2,1,1,1,1,1,1,1,1,1,1,1,1,1,1,1,1,1,1,4,1,1,7,1,6,1,1,2,1,1,3,1,6,2,2,2,2,2,1,1,2,2,2,2,2,1,2,2,4,2,5,5,5,5,5,5,5,5,5,1,2,2,1,2,2,2,1,2,2,2,1,2,3,2,1,1,1,2,3,3,4,2,4,5,2,3,2,1,1,2,4,2,4,4,3,4,3,3,2,2,2,2,2,3,2,2,4,3,3,3,2,4,3,3,4,3,3,3,3,2,2,2,4,4,4,4,3,2,3,4,4,3,2,2,3,2,1,1,2,3,1,1,1,1,3,1
Oxford,1957,1,1,2,3,1.7526,69.85,2,2,0,0,1,20,1,2,35.9,36.4,36.15,51.75,-1.25,86,0,08:15:34,5,1,4,3,1,1,NA,1,NA,1,NA,8,6,1,NA,1,NA,1,NA,NA,2,1,NA,1,NA,NA,NA,NA,NA,NA,NA,NA,NA,NA,2,1,5,1,1,1,3,1,2,5,3,2,2,3,3,4,3,3,3,3,4,3,3,4,3,2,4,1,4,1,2,1,1,2,1,2,1,1,1,1,1,1,1,1,1,1,1,3,5,3,6,2,6,3,6,6,5,6,3,3,2,6,3,6,4,5,3,6,5,6,2,5,6,5,5,3,6,6,5,6,6,5,6,5,5,5,5,3,2,2,4,5,7,2,3,2,3,3,4,5,5,4,5,4,4,4,5,3,4,4,3,2,2,4,2,5,7,6,6,5,6,1,5,5,5,4,1,2,1,4,2,5,3,4,5,4,2,3,2,2,1,2,4,5,2,2,2,4,3,2,3,3,2,3,3,4,2,2,4,4,2,4,2,4,2,2,4,4,2,2,2,3,2,2,2,4,2,2,2
Chile,1958,1,1,2,1,1.73,64,3,2,8,0,1,NA,1,2,35.5,35.5,35.5,33.44999695,-70.66670227,80,12,10:20:28,2,1,2,1,NA,1,1,1,NA,4,4,3,3,1,NA,1,NA,4,1,2,3,1,NA,2,JUNTA DE VECINO,NA,NA,NA,NA,2,NA,NA,NA,NA,3,3,4,3,3,4,3,3,3,4,3,4,3,2,2,3,3,2,2,2,4,3,2,2,3,2,2,2,2,2,2,2,2,2,2,2,2,2,2,2,2,2,2,2,2,2,2,2,4,3,4,4,5,3,4,3,3,5,4,4,4,3,4,3,3,3,3,4,3,3,4,2,3,3,3,3,3,2,4,4,4,3,4,4,4,4,4,4,3,3,4,4,4,5,6,6,6,6,6,3,2,2,2,2,3,2,3,3,3,2,3,4,2,3,3,3,5,5,1,5,5,5,2,4,5,4,2,4,3,3,4,4,4,2,3,4,3,4,4,4,3,3,4,4,3,4,4,4,3,4,4,3,3,3,3,3,4,4,4,4,3,3,3,3,3,3,2,4,3,3,3,4,3,3,3,4,3,2,3
Oxford,1958,2,1,1,7,1.5748,63.63636364,3,1,0,0,2,NA,1,2,36.5,36.7,36.6,51.75,-1.25,86,0,09:20:23,5,1,1,1,NA,2,2,1,NA,1,NA,7,3,1,NA,1,NA,3,1,8,2,1,NA,2,choir,NA,NA,NA,NA,5,NA,NA,NA,NA,2,4,3,4,2,3,2,2,3,4,4,4,4,3,3,4,2,3,2,3,3,3,3,3,4,2,3,2,2,2,2,2,2,2,2,2,2,2,2,2,2,2,2,2,2,2,2,2,2,2,2,2,3,2,3,2,2,2,2,2,2,2,4,5,2,2,2,2,2,2,2,2,2,2,2,3,2,2,2,2,2,2,3,5,4,5,5,4,5,5,5,5,3,3,3,3,2,2,3,2,2,4,3,2,3,3,2,2,2,2,4,4,2,4,3,4,6,6,4,4,3,1,2,4,3,4,3,2,3,2,2,4,2,2,2,3,3,2,3,3,2,3,4,2,4,4,4,4,2,4,4,2,2,4,2,2,4,3,2,2,2,4,3,4,2,2,2,3,4,2,3,3,4,2,3,4,3,2,3
Chile,1958,2,1,1,7,1.6,70,3,1,0,13,1,NA,2,2,36.6,36.6,36.6,33.44999695,-70.66670227,69,12,11:45:27,2,1,1,4,4,2,2,4,4,5,5,5,5,2,1,1,NA,5,8,8,2,1,NA,1,NA,NA,NA,NA,NA,NA,NA,NA,NA,NA,5,5,5,5,5,5,5,3,5,3,5,5,5,3,3,4,2,3,1,1,2,1,2,3,3,1,3,5,3,1,3,1,3,4,2,3,5,5,5,5,3,1,1,1,1,1,5,1,1,1,1,1,1,1,1,1,1,1,1,1,1,1,7,1,1,1,1,1,1,1,1,1,1,1,1,1,1,1,1,1,1,1,1,5,5,5,5,5,1,1,5,5,1,4,4,4,1,1,1,1,1,1,1,1,1,1,1,1,1,1,5,1,1,3,1,5,6,4,1,2,2,1,1,5,1,5,4,4,5,5,3,4,1,3,4,2,1,1,5,4,3,5,4,5,5,5,5,5,1,3,5,1,1,5,1,5,5,5,5,1,1,3,3,5,3,3,5,5,3,5,5,5,1,3,5,3,5,3,3
Bamberg,1958,2,1,2,5,1.72,75,3,1,0,0,2,NA,1,2,36.7,36.9,36.8,51.26669312,7.183303833,89,9,11:02:07,1,1,3,2,2,1,NA,5,NA,2,2,5,2,1,NA,1,NA,3,1,8,2,1,NA,1,NA,NA,NA,NA,NA,NA,NA,NA,NA,NA,3,3,3,2,1,2,2,3,4,3,5,2,3,3,4,4,2,2,4,2,4,3,3,3,4,3,3,2,2,1,2,2,1,1,1,1,4,4,2,1,1,1,2,1,1,1,2,2,3,4,2,2,5,2,5,2,6,3,2,4,4,5,3,2,2,6,6,1,6,7,6,6,6,6,5,4,5,5,6,7,6,3,5,4,4,3,5,4,5,3,5,5,5,6,5,6,6,4,4,4,4,3,3,2,4,4,4,4,2,4,1,1,2,3,2,5,7,5,6,3,5,1,2,4,4,4,2,2,2,1,2,5,3,2,4,5,5,3,3,2,1,3,5,5,3,3,3,2,1,2,3,1,3,5,3,3,4,5,5,4,2,4,5,3,2,1,3,3,4,2,1,3,2,4,2,3,2,2,1
Oxford,1959,1,1,2,6,1.85,140,1,1,1,0,2,NA,1,2,35,36.5,35.75,51.75,-1.25,74,2.777777778,09:04:38,5,1,4,2,2,4,4,5,NA,2,2,6,6,1,NA,1,NA,1,NA,NA,8,1,NA,2,cricket club,NA,NA,NA,NA,3,NA,NA,NA,NA,1,2,2,3,2,2,1,1,2,1,3,1,2,3,3,4,3,2,4,4,4,4,4,2,4,3,3,3,3,3,3,4,2,3,4,3,3,3,3,3,3,3,3,3,3,3,3,5,4,4,4,4,4,4,4,4,4,4,4,4,4,4,4,6,4,5,4,4,4,4,4,4,4,4,4,4,4,4,4,4,4,4,4,4,4,4,4,4,3,3,4,4,7,7,7,7,7,7,6,4,4,4,4,5,4,4,3,3,4,2,1,4,2,2,3,4,6,6,6,4,5,4,4,4,3,5,4,3,3,3,3,2,3,1,3,3,5,3,4,4,3,3,4,4,4,3,3,3,3,4,3,3,3,3,3,3,5,4,4,4,4,3,3,3,2,3,2,3,4,3,3,3,3,3,4,3,3,2,3
Zurich,1959,2,1,1,7,1.64,59,5,2,0,0,2,NA,1,2,35.8,36.2,36,47.16610718,7.987594604,75,8,10:45:44,1,1,1,4,4,1,NA,2,2,6,5,8,5,2,1,1,NA,1,NA,NA,3,2,4,1,NA,NA,NA,NA,NA,NA,NA,NA,NA,NA,3,5,5,4,4,4,5,3,5,5,4,5,5,1,1,2,1,4,2,2,1,1,2,1,3,1,1,1,2,2,2,1,1,1,2,2,3,2,3,4,3,1,4,2,3,1,2,1,1,1,2,2,2,1,1,1,1,1,1,2,1,2,4,1,2,1,2,2,2,2,4,1,1,1,1,1,2,1,1,4,4,1,1,5,5,5,5,5,4,4,2,3,2,2,3,3,1,2,2,1,1,1,2,1,1,1,1,1,1,1,3,3,3,3,2,2,2,4,2,3,2,3,3,2,1,5,5,1,2,2,2,1,1,2,2,2,2,2,1,2,2,3,3,4,4,3,3,2,2,2,2,2,2,2,2,1,3,3,3,3,4,2,2,4,2,2,3,4,2,2,3,4,2,3,4,3,3,4,3
Bamberg,1959,1,1,2,5,1.78,90,2,2,7,0,2,NA,1,2,36.3,36.1,36.2,49.89720154,8.680892944,68,10,11:27:29,1,1,4,4,2,2,2,1,NA,1,NA,2,2,1,NA,1,NA,1,NA,NA,1,1,NA,1,NA,NA,NA,NA,NA,NA,NA,NA,NA,NA,2,3,2,4,2,3,2,4,2,1,3,2,1,4,5,4,3,3,3,3,4,4,4,4,3,3,4,1,2,1,1,4,4,1,2,2,4,4,4,4,4,1,1,1,2,1,4,7,7,6,6,6,7,6,6,7,5,6,5,4,4,6,4,5,1,5,3,6,3,5,4,2,4,3,3,4,4,5,4,6,6,4,4,3,2,2,3,3,3,3,4,4,7,4,4,4,5,5,5,5,5,2,5,5,5,5,4,2,5,4,2,2,2,5,2,5,8,7,7,8,8,8,2,4,3,2,1,2,3,4,2,5,4,3,3,4,3,3,3,3,1,3,5,5,1,3,3,3,2,1,3,2,2,4,2,1,3,5,4,2,1,5,4,1,3,2,2,2,4,2,2,3,4,3,5,4,3,5,4
Bamberg,1959,1,1,1,6,1.92,92,4,1,13,0,2,NA,1,2,36.5,36,36.25,50.51669312,8.699996948,90,-2,10:44:42,1,1,1,3,3,4,4,2,2,8,4,3,1,2,1,1,NA,3,6,8,1,1,NA,1,NA,NA,NA,NA,NA,NA,NA,NA,NA,NA,4,2,5,2,3,5,1,2,2,2,4,4,4,2,5,5,3,3,3,3,4,2,2,4,4,2,3,1,1,1,1,2,1,1,1,1,4,1,1,1,1,1,1,1,1,1,1,7,4,1,4,5,6,1,5,7,1,1,5,4,1,5,5,2,1,1,2,4,1,4,1,2,2,2,1,1,1,1,1,6,4,1,2,5,4,5,5,5,4,5,5,4,6,5,3,2,6,6,6,2,2,3,2,4,2,3,1,1,3,2,3,1,1,2,3,4,6,5,5,2,2,4,3,3,4,5,3,2,1,2,2,5,3,4,3,4,4,2,5,3,5,5,4,4,5,5,5,5,2,2,4,3,1,2,2,3,3,4,4,1,2,3,4,3,2,2,3,4,5,4,3,3,3,2,3,2,2,3,4
Kassel,1959,2,1,1,7,1.72,83,5,2,0,0,2,NA,1,2,36.6,36.6,36.6,48.76669312,9.183303833,NA,NA,11:02:21,1,1,1,3,3,1,NA,1,NA,4,2,6,5,1,NA,1,NA,3,1,8,3,2,3,1,NA,NA,NA,NA,NA,NA,NA,NA,NA,NA,2,1,5,4,2,4,5,5,2,4,5,2,3,5,2,2,2,2,1,1,2,1,1,3,5,1,2,2,4,1,4,1,3,1,1,2,4,2,4,2,2,1,1,1,2,1,2,2,1,1,2,6,1,1,2,1,1,1,2,1,1,1,1,1,1,1,1,2,2,2,2,2,1,1,1,1,1,1,1,5,1,1,1,5,5,4,5,5,5,4,5,5,5,5,4,6,4,3,5,1,1,1,2,4,1,1,2,2,1,1,2,1,2,3,2,5,6,3,2,2,2,2,1,3,1,5,4,5,3,2,5,5,4,1,1,5,5,1,5,4,2,5,3,4,5,5,5,5,2,2,4,2,1,1,1,1,4,4,4,2,2,3,1,4,3,2,1,5,5,5,5,4,3,2,4,4,4,2,1
Bamberg,1959,1,1,1,7,1.86,110,4,2,0,0,2,NA,1,2,38.4,38.4,38.4,50.15739441,8.635498047,86,0,20:54:25,1,1,1,1,NA,2,2,2,2,1,NA,2,5,1,NA,1,NA,2,1,5,7,1,NA,1,NA,NA,NA,NA,NA,NA,NA,NA,NA,NA,1,5,2,5,1,3,5,5,5,5,4,1,1,3,4,3,3,2,3,3,3,2,3,3,4,2,4,1,4,1,4,1,1,2,1,3,3,4,1,3,1,1,2,1,1,1,1,5,1,1,4,1,6,1,2,2,1,2,4,2,4,2,1,1,1,1,1,4,1,1,1,1,1,1,1,1,1,1,1,5,5,1,1,5,5,5,5,4,2,1,4,3,4,7,1,7,7,7,1,1,1,1,1,1,1,1,1,1,1,1,1,1,1,1,1,4,8,7,5,2,2,7,3,3,2,4,3,2,2,2,3,3,2,1,4,4,4,1,5,4,3,5,5,5,5,5,5,5,1,3,5,1,1,5,1,3,4,5,2,3,2,3,2,5,2,5,2,4,4,5,5,5,1,2,5,5,3,2,2
Bamberg,1960,2,1,1,6,1.65,67,3,1,1,0,2,NA,1,2,35.8,36.3,36.05,51.17599487,7.065307617,80,6,10:17:19,1,1,1,1,NA,1,NA,3,1,1,NA,4,1,1,NA,1,NA,2,1,7,3,1,NA,1,NA,NA,NA,NA,NA,NA,NA,NA,NA,NA,2,2,5,3,4,3,2,3,2,3,4,5,4,2,3,4,2,2,2,3,3,3,2,4,4,3,2,1,3,1,3,1,1,3,2,1,2,2,2,2,1,1,1,1,1,1,2,1,1,1,1,1,2,1,1,1,1,1,2,1,2,1,1,2,1,1,2,1,4,1,1,6,2,7,2,4,1,2,2,7,7,1,2,4,4,4,4,4,2,1,1,1,1,1,1,1,1,1,3,2,2,3,2,2,2,2,1,2,1,2,2,2,2,3,1,5,7,6,6,6,6,6,3,3,4,4,3,1,5,5,1,2,4,2,4,4,2,3,1,3,3,4,4,4,4,3,4,4,1,4,4,1,1,3,2,1,1,3,2,3,2,2,2,4,1,1,3,4,3,3,3,3,4,2,3,3,2,4,2
Oxford,1960,1,1,2,7,1.778,84.09090909,2,2,8,1,1,10,1,2,35.8,36.5,36.15,51.75,-1.25,86,0,07:56:56,5,1,4,2,2,1,NA,5,NA,1,NA,3,1,1,NA,2,1,3,1,8,1,1,NA,1,NA,NA,NA,NA,NA,NA,NA,NA,NA,NA,2,1,2,5,2,2,2,1,4,5,4,2,2,3,3,4,2,2,2,3,2,2,3,3,4,2,3,2,4,2,4,2,2,4,2,4,1,1,1,1,1,1,1,1,1,1,1,1,1,1,1,1,4,1,7,7,1,7,1,1,1,7,1,1,1,1,7,6,7,1,1,1,7,7,7,7,7,7,1,7,7,7,7,5,1,5,3,1,5,5,5,1,7,2,5,3,3,5,5,3,1,1,1,1,3,1,2,1,1,1,1,1,3,1,1,3,4,1,2,2,2,2,2,4,4,4,2,2,2,2,2,5,4,3,4,4,4,3,3,4,1,1,5,5,2,3,1,1,1,1,1,1,1,1,1,1,1,4,1,5,1,4,3,2,1,1,3,3,3,2,2,2,5,1,1,4,2,1,1
Bamberg,1960,2,2,1,7,1.75,87,2,2,1,0,1,20,1,2,36.3,36.7,36.5,52.51669312,13.3999939,79,-4,14:06:29,1,1,1,4,2,1,NA,1,NA,8,2,5,5,1,NA,1,NA,1,NA,NA,3,1,NA,1,NA,NA,NA,NA,NA,NA,NA,NA,NA,NA,3,3,3,4,2,3,3,3,3,5,4,4,4,2,2,2,2,2,2,2,2,3,2,3,3,2,2,2,3,1,3,1,1,2,2,3,3,2,3,1,4,1,2,2,2,3,3,4,2,2,2,4,4,2,2,2,2,6,2,4,2,2,2,2,2,2,2,4,2,2,2,2,2,2,2,2,2,2,2,4,4,2,4,5,5,5,5,3,5,4,4,4,3,3,4,3,3,5,4,2,2,2,3,1,1,2,2,3,2,1,2,2,2,4,1,5,5,3,3,4,2,5,2,2,3,5,4,3,3,3,3,3,2,2,2,3,3,2,3,3,2,4,4,4,4,3,4,2,3,2,3,3,2,2,3,2,3,4,3,2,2,3,3,3,3,2,4,4,4,3,3,4,4,2,4,4,3,4,2
Portugal,1961,1,1,1,7,1.73,67,1,1,0,0,2,NA,1,2,36.6,36.4,36.5,38.71670532,-9.133300781,91,9,11:34:25,8,1,1,3,3,2,2,4,1,8,3,8,3,1,NA,1,NA,1,NA,NA,4,2,3,2,Livre,NA,NA,NA,NA,7,NA,NA,NA,NA,4,4,5,2,3,5,5,4,4,5,5,3,4,4,3,2,3,2,2,3,2,4,3,3,3,2,2,1,1,1,1,2,1,1,1,1,3,1,1,1,1,1,1,1,1,1,1,1,1,1,1,1,1,1,2,1,1,1,5,2,5,1,5,2,1,2,4,7,1,2,2,2,4,4,1,4,3,1,1,7,6,4,1,5,5,5,5,5,5,3,4,3,6,5,6,4,5,5,6,1,1,1,2,2,1,1,2,2,1,1,3,1,3,2,3,4,5,7,2,2,2,3,1,2,2,4,4,5,3,5,4,3,2,3,3,4,4,4,5,4,4,3,3,4,3,1,4,1,2,2,3,4,2,2,4,5,4,4,4,5,2,5,5,5,1,4,1,5,2,4,4,5,4,4,4,4,3,2,4
Poland,1962,1,1,1,7,1.83,101,3,2,19,19,2,NA,1,2,37,36.5,36.75,52.59309387,19.08940125,77,NA,11:54:07,9,1,1,3,3,4,4,4,4,8,3,8,3,2,1,2,8,3,4,5,2,1,NA,1,NA,NA,NA,NA,NA,NA,NA,NA,NA,NA,1,1,1,1,2,2,1,4,2,2,3,2,2,3,4,5,4,3,4,3,2,3,3,5,5,4,4,4,4,3,2,4,5,2,2,4,4,4,4,4,4,3,2,3,3,2,4,6,6,5,4,6,5,4,5,6,6,2,4,4,7,2,7,2,2,2,2,4,3,2,2,1,5,5,3,3,3,2,2,6,4,6,2,4,4,4,3,3,5,5,5,4,6,3,3,5,5,4,5,5,4,4,4,3,4,4,4,5,3,3,2,4,1,5,2,4,5,4,2,2,2,2,4,4,3,3,2,2,2,3,2,4,3,4,4,4,2,4,1,3,3,4,2,3,5,5,4,5,4,4,4,4,1,2,3,2,2,4,2,2,1,2,2,5,2,2,2,3,3,3,4,4,2,1,3,3,3,4,3
Oxford,1963,2,1,2,5,1.5,46,4,2,0,0,2,NA,1,1,36.3,36.6,36.45,51.75,-1.25,74,2.777777778,09:09:16,5,1,4,2,2,1,NA,5,NA,8,2,8,4,1,NA,1,NA,3,1,8,1,1,NA,2,Dance group,NA,NA,NA,NA,5,NA,NA,NA,NA,3,5,2,2,4,4,3,3,5,1,4,5,2,1,3,3,2,3,2,3,3,3,2,4,4,2,3,1,1,1,2,4,2,1,2,1,4,1,4,4,4,2,1,1,2,4,4,4,4,4,4,4,4,4,4,5,4,3,4,4,6,4,7,4,4,5,6,4,4,4,6,7,4,4,3,4,5,4,6,4,4,5,4,5,5,5,5,5,3,3,3,1,5,7,5,4,4,4,5,1,4,1,1,2,2,2,1,3,1,1,3,3,1,2,3,5,6,6,5,5,5,5,2,1,1,5,5,4,1,2,4,1,3,4,1,4,4,1,5,4,2,2,3,4,5,3,4,2,4,4,2,3,3,2,3,1,4,4,3,4,3,2,5,2,2,1,1,1,2,2,2,2,4,3,2,3,3,5,1
Bamberg,1963,1,1,1,6,1.75,80,3,1,2,0,2,NA,1,2,36.3,36.6,36.45,50.11669922,8.683303833,73,-1,13:21:09,1,1,1,3,3,4,2,2,1,1,NA,4,2,2,1,1,NA,1,NA,NA,1,1,NA,1,NA,NA,NA,NA,NA,NA,NA,NA,NA,NA,3,2,5,4,2,2,3,3,4,4,4,5,4,2,3,3,2,2,2,2,2,2,2,3,4,2,2,2,4,1,2,2,1,2,2,2,1,2,1,2,1,4,1,1,2,3,3,5,2,6,5,6,4,2,3,2,1,2,7,2,3,2,5,2,1,2,2,2,2,2,2,1,3,2,4,1,3,3,1,7,4,3,3,4,4,4,4,4,4,4,4,4,3,3,4,4,3,3,3,2,3,1,3,2,1,2,2,2,2,2,2,2,2,4,3,3,3,3,2,2,2,3,4,2,3,4,3,1,3,4,1,3,1,5,3,4,4,3,2,5,4,4,2,3,3,4,3,4,1,3,3,1,2,4,3,1,3,3,2,4,2,3,3,2,2,4,2,4,4,4,4,2,4,2,2,2,2,4,1
Oxford,1964,1,1,1,7,1.7,NA,4,2,1,0,2,NA,1,2,35.3,35.3,35.3,51.75,-1.25,71,1.666666667,08:36:39,5,1,2,1,NA,1,NA,5,NA,1,NA,8,8,2,8,2,8,1,NA,NA,6,2,8,2,church,drop-in,class,community support,health etc discussions,7,7,7,7,7,4,3,4,2,2,3,3,4,2,2,4,3,2,2,3,4,1,1,1,3,3,1,3,3,3,1,3,3,3,3,3,3,3,3,3,3,3,3,3,3,3,3,3,3,3,3,3,2,4,4,5,6,2,2,4,2,2,2,3,5,5,4,6,2,4,5,5,5,3,4,5,4,3,3,3,5,4,2,3,3,6,2,3,5,3,4,5,3,5,5,5,4,3,5,5,5,5,5,5,1,2,1,2,1,1,1,2,2,1,2,1,2,4,5,2,5,7,5,2,2,2,3,2,2,4,4,4,1,3,2,2,2,2,2,2,2,2,2,2,2,2,2,5,2,3,4,4,3,3,3,2,3,2,3,2,2,2,4,2,4,2,4,3,4,2,1,4,2,1,1,1,2,2,1,2,1,2,5,5
Oxford,1964,2,1,2,5,1.6764,76.2,3,2,0,0,2,NA,1,2,34.8,36.5,35.65,51.75,-1.25,71,1.666666667,08:40:40,5,1,4,1,NA,1,NA,1,NA,1,NA,4,4,1,NA,1,NA,2,8,6,3,1,NA,1,NA,NA,NA,NA,NA,NA,NA,NA,NA,NA,5,3,5,2,4,2,2,3,3,3,2,4,3,3,3,3,4,3,2,2,2,2,2,3,3,3,3,5,5,2,5,5,5,5,3,5,4,5,5,5,5,5,4,5,5,5,4,2,5,6,5,3,5,5,6,6,7,6,3,4,6,5,4,3,3,1,3,3,1,3,2,2,2,3,3,3,2,3,2,1,5,2,4,4,3,3,4,3,2,2,3,3,6,4,4,5,5,5,4,3,4,2,3,4,4,3,3,3,3,3,3,3,2,3,2,3,4,5,2,3,3,1,2,4,4,4,3,2,3,4,4,3,2,1,3,3,3,3,3,2,2,3,1,3,4,4,3,4,3,4,4,1,2,2,3,1,3,3,5,3,3,3,2,4,3,3,4,3,4,3,3,3,3,4,4,4,3,2,2
Poland,1964,1,1,1,5,1.76,96,2,2,0,0,2,NA,1,2,36.6,36.9,36.75,52.23330688,21.01669312,79,8,07:43:00,9,1,1,2,2,4,4,2,2,1,NA,4,3,1,NA,2,8,6,8,8,3,1,NA,1,NA,NA,NA,NA,NA,NA,NA,NA,NA,NA,2,3,3,3,3,4,3,3,4,3,5,4,4,2,3,4,4,4,4,3,2,4,3,3,3,4,3,4,3,3,3,4,2,3,3,3,4,4,4,4,4,3,3,3,4,3,3,4,4,4,4,4,4,4,4,4,4,4,4,4,4,4,6,4,4,4,2,4,4,4,4,1,4,4,2,4,4,4,4,4,4,4,4,4,4,4,4,4,4,4,4,4,3,4,4,4,4,2,3,1,1,3,3,3,2,3,2,3,1,1,3,1,1,3,2,3,4,4,2,3,2,2,1,4,3,3,3,3,3,3,3,3,3,3,3,3,3,3,3,3,3,4,2,4,4,3,3,3,3,3,3,3,3,3,3,2,3,3,3,2,3,3,3,3,3,3,3,3,3,3,2,3,3,3,3,3,3,3,3
Kassel,1965,1,1,1,7,1.78,92,4,2,3,0,2,NA,1,2,35.5,35.4,35.45,48.76669312,9.183303833,NA,NA,11:05:32,1,1,1,5,3,1,NA,1,NA,1,NA,3,3,1,NA,1,NA,3,8,8,3,1,NA,1,NA,NA,NA,NA,NA,NA,NA,NA,NA,NA,2,4,5,4,2,1,2,4,5,4,5,4,5,2,2,3,1,2,1,2,5,1,2,2,3,3,2,2,3,3,2,2,1,1,2,2,2,2,2,1,1,1,1,1,2,1,1,1,1,1,1,1,1,1,1,1,1,1,1,6,1,1,1,2,1,1,1,1,1,2,1,1,1,1,2,1,1,2,5,2,2,1,1,5,5,4,5,5,5,5,5,4,3,3,2,3,2,3,3,2,1,1,2,1,1,1,1,1,2,1,1,1,2,1,5,5,5,4,1,1,1,4,3,3,2,4,4,3,3,3,4,4,4,2,2,2,4,1,1,2,3,4,3,4,5,5,5,5,1,2,4,1,1,2,1,2,3,4,3,2,2,2,5,4,2,2,1,4,3,4,4,5,2,1,3,2,2,3,1
Chile,1965,1,1,1,7,1.7,84,3,2,0,5,2,0,1,2,36.4,36.7,36.55,33.44999695,-70.66670227,80,7,11:55:52,2,1,1,3,3,4,4,1,NA,8,8,8,7,1,NA,1,NA,5,8,8,2,1,NA,1,NA,NA,NA,NA,NA,NA,NA,NA,NA,NA,3,4,5,4,3,2,2,2,5,2,4,3,5,1,3,2,3,2,2,2,2,2,2,2,3,2,2,4,2,1,3,2,1,2,3,2,4,2,4,2,3,2,1,2,2,1,3,2,1,2,2,2,7,1,2,3,1,4,2,1,2,1,2,2,2,2,1,2,2,1,1,2,1,2,2,2,2,1,2,6,6,3,2,4,5,4,5,4,3,3,5,4,2,2,2,1,2,1,2,2,2,3,2,2,1,2,2,2,1,1,2,1,2,1,1,4,4,5,1,6,6,1,3,3,4,4,2,2,4,4,2,5,3,4,4,4,2,4,3,5,4,4,5,4,3,2,4,4,4,4,5,5,1,1,3,4,4,5,4,5,2,2,3,4,4,2,2,3,4,2,2,3,1,4,2,3,2,4,3
Portugal,1965,2,1,1,7,1.63,60,4,2,1,0,2,NA,1,2,37,36.8,36.9,38.71670532,-9.133300781,91,9,11:11:44,8,1,1,3,3,4,4,2,2,8,3,8,4,2,1,1,NA,3,8,8,3,1,NA,2,CampoVivo,NA,NA,NA,NA,2,NA,NA,NA,NA,4,3,4,5,5,4,3,2,3,4,4,2,4,2,3,3,2,2,2,2,3,2,2,2,4,2,3,3,3,1,2,4,1,2,3,2,5,4,4,3,4,1,1,1,1,1,4,2,1,2,2,3,7,2,1,4,1,1,1,2,1,2,3,1,1,1,1,1,4,2,1,1,1,4,4,4,1,1,1,1,5,1,1,5,5,5,5,5,5,4,4,5,3,4,5,4,3,4,3,1,2,1,3,1,1,1,2,5,1,1,3,2,2,2,3,4,6,6,2,4,1,2,2,4,4,4,4,3,3,4,4,4,1,2,2,3,3,5,5,5,4,3,4,5,3,1,3,1,2,2,4,4,2,4,4,2,3,4,3,3,2,1,2,4,3,2,1,5,5,5,4,4,2,2,3,4,2,3,1
Oxford,1966,1,1,1,6,1.8542,76.2,3,2,1,1,2,NA,1,2,34.5,36,35.25,51.75,-1.25,74,2.777777778,08:21:27,5,1,1,1,NA,4,4,4,1,1,NA,8,8,1,NA,1,NA,2,1,2,2,1,NA,1,NA,NA,NA,NA,NA,NA,NA,NA,NA,NA,3,3,4,4,4,2,2,3,3,4,5,3,5,2,4,5,2,2,4,2,4,3,2,5,4,3,4,2,4,2,3,2,1,4,1,2,4,2,4,4,3,2,1,2,5,1,3,6,5,4,6,6,5,4,4,2,7,6,6,5,3,4,6,5,4,4,6,4,5,2,3,4,4,2,3,4,4,4,4,5,6,3,5,4,2,4,3,2,3,4,4,2,7,6,6,6,7,6,6,4,1,2,2,4,4,2,2,2,4,4,2,2,2,2,2,5,8,6,4,6,7,6,2,5,5,4,1,1,1,4,2,5,2,2,4,4,2,3,2,1,2,5,5,5,4,4,4,3,2,2,4,2,2,4,3,2,4,5,5,3,4,3,3,2,2,1,4,4,5,3,2,4,4,4,3,5,3,3,2
VCU,1966,2,1,2,7,1.5748,122.7272727,4,2,0,0,2,NA,1,2,35.94444444,36.77777778,36.36111111,37.75100708,-97.8219986,92,10,11:28:30,5,1,3,3,3,2,2,1,NA,6,6,3,2,2,1,2,2,3,1,1,2,2,2,1,NA,NA,NA,NA,NA,NA,NA,NA,NA,NA,3,2,5,5,2,5,1,1,5,5,1,1,5,2,3,5,1,1,1,4,3,1,2,3,5,1,2,2,1,2,1,2,1,2,4,1,1,1,1,1,1,1,1,1,1,1,1,7,7,7,7,7,7,7,7,7,6,2,7,7,1,1,7,7,7,7,7,7,5,7,7,7,7,4,1,7,7,1,7,7,7,7,7,5,5,5,5,5,5,5,5,5,1,1,1,1,1,1,1,1,1,1,1,1,1,1,1,1,1,1,5,5,1,1,2,2,2,4,2,1,2,1,2,4,4,4,2,4,2,4,4,5,2,2,4,5,2,4,3,5,5,2,2,2,5,3,4,4,2,4,4,2,1,5,4,2,2,5,2,2,1,5,2,2,3,2,4,4,4,3,5,5,2,2,5,3,3,2,3
Kassel,1966,2,1,1,6,1.64,73,3,1,0,0,2,NA,1,2,36.3,36.96,36.63,49.19020081,9.219192505,NA,NA,10:31:47,1,1,1,3,3,4,2,4,4,4,2,4,3,2,3,1,NA,1,NA,NA,3,2,2,1,NA,NA,NA,NA,NA,NA,NA,NA,NA,NA,3,2,3,3,3,4,2,2,3,2,4,4,2,4,4,4,3,3,2,3,4,3,3,4,4,2,4,1,1,1,1,1,1,1,1,1,1,1,1,1,1,1,1,1,1,1,1,2,2,2,4,5,5,1,4,6,2,2,5,4,4,4,2,2,2,2,2,3,3,4,3,4,2,2,3,4,2,2,3,6,5,2,2,5,5,4,5,4,4,4,4,4,4,5,5,5,3,3,2,2,2,1,2,2,2,2,2,2,2,2,3,2,2,4,2,4,6,5,6,3,2,4,3,5,3,4,2,4,3,3,2,4,4,1,3,5,2,2,2,5,4,4,2,4,4,5,4,4,2,4,4,2,2,4,2,1,1,4,2,2,2,2,2,4,2,3,4,3,3,4,4,2,2,1,4,4,3,2,1
Oxford,1967,2,1,2,6,1.67,67,3,2,0,2,2,NA,1,2,34.9,36.8,35.85,51.75,-1.25,88,-2.222222222,09:00:57,5,1,3,3,3,3,1,5,NA,3,1,8,4,1,NA,2,8,2,8,8,3,1,NA,2,teachers,pupils,NA,NA,NA,7,7,NA,NA,NA,3,2,5,2,3,4,5,1,4,4,5,3,4,3,2,3,2,2,2,2,3,2,2,3,5,2,2,4,4,2,4,4,2,3,4,2,1,1,1,4,1,2,1,1,3,1,4,6,6,4,6,6,6,6,5,4,6,4,6,4,6,4,4,4,4,4,6,6,7,6,4,4,4,6,2,2,7,2,4,6,7,4,4,4,4,4,4,5,5,2,2,1,1,2,1,1,2,2,2,2,2,4,3,2,3,2,2,2,2,2,2,2,2,2,3,5,3,4,2,1,1,2,1,5,3,5,1,5,1,2,4,5,4,5,2,4,4,1,4,2,3,3,4,1,5,3,3,3,3,4,3,3,3,3,3,3,2,3,2,3,2,2,2,3,3,3,1,3,3,3,4,4,3,1,3,2,4,3,1
Bamberg,1967,2,1,1,5,1.67,57,3,2,0,2,2,NA,1,2,36,36,36,47,8,46,5,12:04:12,1,1,2,1,NA,2,2,2,2,1,NA,5,2,1,NA,1,NA,3,1,8,3,1,NA,1,NA,NA,NA,NA,NA,NA,NA,NA,NA,NA,3,3,4,3,3,2,3,2,4,4,2,3,3,3,3,3,4,2,3,2,3,4,2,3,3,2,2,3,2,2,4,2,4,3,4,4,3,2,3,2,1,1,2,2,2,1,2,4,3,2,3,3,5,2,2,5,3,2,2,5,3,5,2,4,2,2,2,5,4,2,4,2,2,2,2,3,3,3,2,5,6,3,3,4,4,4,4,3,5,5,4,4,6,5,5,5,4,4,5,2,2,1,2,2,3,2,2,3,2,2,3,3,2,2,2,5,7,4,2,5,6,6,1,3,2,5,4,3,3,2,3,4,3,2,2,3,4,1,4,4,2,4,5,4,4,4,3,3,4,3,4,3,2,2,3,2,3,3,2,3,3,2,3,4,2,2,1,4,4,4,2,4,3,2,4,3,3,2,3
Oxford,1967,2,1,2,6,1.76,90,3,1,1,0,2,NA,1,1,36.3,36,36.15,NA,NA,74,2.777777778,09:32:11,5,1,5,1,NA,2,2,2,2,8,3,8,6,2,1,1,NA,1,NA,NA,3,2,4,1,NA,NA,NA,NA,NA,NA,NA,NA,NA,NA,2,3,4,4,3,4,3,1,2,2,4,4,3,3,3,2,2,2,2,2,3,2,2,2,3,2,3,1,3,1,3,1,1,1,1,2,2,1,1,1,1,1,1,1,1,1,1,2,2,1,2,1,2,2,2,2,2,2,2,2,2,2,2,2,2,2,1,3,2,2,1,2,2,2,2,2,2,2,2,4,4,2,2,4,3,4,3,3,4,4,4,3,6,3,3,2,2,2,3,2,2,2,2,2,2,3,2,2,2,2,3,2,5,2,2,5,4,5,2,2,4,2,2,4,4,4,3,3,3,3,3,4,2,2,3,4,4,1,2,4,3,4,3,4,3,4,4,3,3,4,4,4,2,2,2,2,2,2,2,3,2,2,2,4,1,2,2,3,3,2,3,4,3,3,4,3,3,2,2
Tsinghua,1967,1,1,2,3,1.65,62.5,2,2,NA,NA,2,0,1,2,36.6,36.5,36.55,35,105,67,15,12:10:28,7,3,4,2,3,2,2,2,1,4,4,6,4,1,1,1,6,1,6,4,1,2,1,2,ÖÐ¹²µ³Ô±,NA,NA,NA,NA,3,NA,NA,NA,NA,3,4,3,3,4,4,2,3,3,3,3,3,2,3,3,3,3,3,3,4,3,3,4,3,2,3,3,4,3,2,2,4,1,4,4,4,4,3,4,4,4,3,4,3,3,3,4,4,4,4,4,4,4,4,4,4,4,4,4,4,4,4,4,4,5,4,4,4,4,4,4,4,3,4,4,3,3,3,4,4,4,4,3,3,3,3,3,3,4,4,3,4,3,1,3,7,7,3,3,3,4,4,3,4,3,4,4,3,3,3,3,4,3,4,2,2,2,4,3,3,1,1,1,3,4,4,2,2,3,3,3,3,4,2,2,4,3,2,3,4,3,3,4,4,3,3,3,3,2,3,3,3,4,4,3,3,3,3,3,3,3,3,4,3,3,3,2,3,4,2,2,3,3,3,3,2,3,3,2
Oxford,1968,2,3,2,7,1.651,92.27272727,2,1,0,0,2,NA,1,2,34.2,36.7,35.45,51.75,-1.25,88,-2.222222222,08:25:01,5,1,4,1,NA,4,1,5,NA,4,1,8,8,1,NA,2,8,2,1,8,4,1,NA,2,Professional Body,Professional peer group,Yoga,Martial arts,politics,0,4,7,7,3,3,2,2,4,4,4,1,2,2,2,3,2,2,5,4,4,3,3,4,3,5,3,4,2,5,2,5,5,4,4,4,4,5,5,3,5,5,5,5,5,5,4,4,4,5,5,5,7,7,7,7,7,7,6,7,7,3,7,6,4,6,7,5,7,4,1,2,6,3,1,1,6,3,3,1,1,1,1,6,3,3,3,2,4,2,4,4,2,5,4,5,4,7,5,4,4,4,4,4,4,4,3,2,4,2,4,2,2,1,3,1,1,1,1,1,5,6,5,4,6,8,5,2,5,2,4,1,4,4,4,4,5,3,2,3,5,5,2,3,5,2,5,4,5,4,5,5,5,2,4,5,2,2,2,2,3,1,5,2,2,2,4,4,4,3,2,1,4,4,4,4,5,2,4,5,4,4,2,5
Oxford,1968,1,1,1,7,1.73,76.36363636,2,2,0,0,2,NA,1,2,34.8,36.2,35.5,51.75,-1.25,71,1.666666667,08:49:51,5,1,2,1,NA,4,1,5,NA,1,NA,6,1,1,NA,1,NA,1,NA,NA,1,1,NA,1,NA,NA,NA,NA,NA,NA,NA,NA,NA,NA,4,4,4,4,5,5,3,5,5,1,3,1,4,1,1,1,3,2,5,5,3,5,5,1,1,5,2,1,1,1,1,1,1,1,1,1,1,1,1,1,1,1,1,1,1,1,1,5,4,4,4,4,4,4,4,4,4,4,4,4,4,4,4,4,3,4,4,4,4,4,4,4,4,4,4,4,4,4,1,4,4,4,4,2,3,3,1,3,1,1,1,1,1,1,1,1,1,1,1,1,1,1,5,1,1,1,1,1,1,1,5,1,5,1,5,1,2,1,2,2,2,2,5,5,5,5,1,1,5,5,1,5,4,3,4,4,4,1,1,5,1,1,1,1,1,4,1,4,3,1,3,3,1,1,1,3,5,4,4,3,3,3,3,3,3,3,3,3,3,3,3,3,3,3,3,3,3,4,1
Oxford,1968,1,1,1,6,1.7272,NA,2,2,0,0,2,NA,1,2,35.7,36.2,35.95,51.75,-1.25,74,2.777777778,08:54:46,5,1,2,1,NA,4,1,5,NA,1,NA,5,1,1,NA,2,1,1,NA,NA,1,1,NA,1,NA,NA,NA,NA,NA,NA,NA,NA,NA,NA,3,4,3,4,5,4,4,4,1,1,2,5,4,3,3,3,3,3,3,3,3,3,3,3,3,3,3,3,4,3,3,1,3,1,1,4,3,3,3,3,3,3,3,3,3,3,3,4,4,4,4,4,4,4,4,4,4,4,4,4,4,4,4,4,4,4,4,4,4,4,4,4,4,4,4,4,4,4,4,4,4,4,4,1,3,4,3,3,3,1,1,1,1,4,4,4,4,1,1,3,3,3,3,3,3,3,3,3,3,3,3,3,3,3,3,1,1,1,1,1,1,2,4,4,5,4,2,1,4,4,2,5,4,3,4,5,4,2,1,4,3,3,3,3,3,3,3,3,3,3,3,3,3,3,3,3,3,3,4,3,3,3,3,3,3,3,3,3,3,3,3,3,3,3,3,3,3,3,3
Bamberg,1968,2,1,1,6,1.63,66,4,2,8,1,2,NA,1,2,36,36.7,36.35,49.6499939,10.88330078,90,1,10:59:30,1,1,1,6,6,2,2,2,1,6,4,6,6,2,5,2,8,3,8,8,5,1,NA,1,NA,NA,NA,NA,NA,NA,NA,NA,NA,NA,2,2,5,4,2,3,2,4,4,4,5,4,4,2,2,3,2,2,2,2,3,3,2,3,3,3,2,1,4,1,4,2,1,2,4,2,4,4,4,3,2,3,2,2,2,1,4,4,3,3,3,3,3,3,4,3,3,3,3,4,3,3,3,3,3,4,3,3,5,5,3,3,3,4,3,3,2,3,3,4,4,3,4,4,5,5,5,5,3,5,5,4,3,3,2,2,3,2,2,1,2,1,2,2,2,1,2,3,1,1,2,1,1,5,2,4,5,5,2,6,5,4,3,3,2,4,4,3,2,2,2,3,2,2,2,2,2,2,3,2,2,4,3,2,4,3,3,3,2,3,2,2,2,2,2,2,4,3,4,2,2,3,2,3,3,2,2,3,4,2,2,2,4,2,2,3,3,4,2
Tsinghua,1968,2,1,2,7,1.53,50,3,2,0,0,2,0,1,2,36.3,36.6,36.45,30.66670227,104.0667114,68,13,10:58:56,7,3,1,2,2,2,2,2,2,8,6,5,5,1,1,2,3,3,4,8,3,1,3,1,ÖÐ¹²µ³×éÖ¯,Úöº£ÊªµØ¿ÆÆÕ,è¤Ù¤¹Ý,NA,NA,5,3,3,NA,NA,1,4,3,4,4,3,2,3,4,3,4,3,2,2,2,2,3,2,2,2,1,2,3,2,4,2,2,2,1,1,1,1,1,2,1,3,2,1,2,2,2,1,1,1,1,1,1,2,1,1,2,7,1,1,3,1,1,1,1,1,4,1,2,1,1,3,1,1,1,1,1,1,1,1,1,1,1,1,1,1,1,1,1,4,5,5,5,5,5,3,5,5,1,2,4,2,2,2,2,1,2,4,1,2,1,1,1,2,1,1,2,5,2,5,1,4,4,4,2,2,2,2,2,4,5,5,2,2,4,4,4,4,2,1,1,5,5,1,1,5,2,3,4,4,5,2,4,5,5,5,5,5,4,1,3,2,2,2,4,4,2,3,4,4,4,2,1,4,4,4,4,4,4,4,4,4,4,4,2
Zurich,1968,1,1,1,4,1.85,98,3,1,3,0,2,NA,1,2,36.47,36.79,36.63,47,8,79,4,09:48:57,1,1,2,1,NA,2,2,5,NA,6,1,4,1,1,NA,1,NA,3,8,8,8,2,1,1,NA,NA,NA,NA,NA,NA,NA,NA,NA,NA,2,2,5,3,2,3,2,2,4,4,4,2,2,3,3,3,3,2,2,2,2,2,2,3,3,2,2,4,4,2,4,2,2,2,2,5,2,2,4,2,2,2,2,2,2,1,4,4,4,4,4,4,5,4,4,4,4,4,4,4,4,4,4,4,4,4,4,4,4,4,4,4,4,4,4,4,4,4,4,4,4,4,4,5,4,4,4,3,3,4,5,5,4,5,5,5,4,4,4,2,2,4,3,1,4,4,2,1,1,1,3,4,5,4,4,4,4,5,2,2,2,2,4,3,4,4,2,1,1,1,1,4,4,4,4,2,2,3,4,4,1,4,4,2,4,2,2,3,4,3,3,3,3,3,3,1,3,4,4,4,2,4,2,4,3,1,4,4,4,2,1,1,1,3,2,3,1,2,2
Zurich,1968,2,1,1,7,1.76,64,2,1,0,0,2,NA,1,2,36.55,36.9,36.725,47.40060425,8.397399902,69,4,10:35:54,1,1,1,1,NA,4,4,4,1,3,2,8,1,1,NA,2,6,1,NA,NA,1,1,NA,1,NA,NA,NA,NA,NA,NA,NA,NA,NA,NA,4,4,4,5,3,3,5,5,3,4,5,5,5,1,3,3,2,1,2,2,2,4,2,3,5,1,2,1,1,1,1,1,1,1,2,4,4,4,4,4,4,1,1,1,1,1,1,2,1,1,1,1,2,1,1,1,1,2,1,1,1,2,1,3,1,1,1,5,1,1,1,1,1,1,1,1,1,2,1,5,5,1,2,5,5,4,5,5,5,2,4,2,2,1,3,2,2,2,2,1,1,1,2,1,2,2,1,2,2,2,1,1,2,1,1,5,6,4,2,2,1,3,1,4,1,5,2,5,2,3,5,5,3,1,1,3,3,2,4,2,4,4,4,4,4,4,4,4,2,3,3,2,1,3,4,5,4,3,3,3,2,2,4,2,3,2,3,3,5,5,4,2,2,1,3,3,2,3,2
Poland,1968,2,1,1,7,1.7,63,3,2,3,4,2,NA,1,2,36.8,37,36.9,52.25,21,55,-3,10:28:00,9,1,1,3,3,2,2,3,1,4,1,3,3,1,NA,2,3,3,1,4,3,1,NA,1,NA,NA,NA,NA,NA,NA,NA,NA,NA,NA,4,3,2,2,5,4,3,4,4,3,4,5,5,3,3,3,4,3,3,4,3,3,3,3,4,3,4,3,3,3,3,3,3,3,2,4,3,2,3,3,3,1,1,1,3,1,3,4,3,3,4,4,5,4,5,2,5,6,4,2,2,2,6,5,2,5,3,7,2,6,4,2,5,3,3,5,5,5,3,7,7,4,6,3,5,3,4,2,3,2,4,3,7,3,4,3,6,5,6,2,2,3,2,2,4,2,2,2,2,2,3,2,1,2,2,5,7,7,7,7,7,3,1,5,3,4,2,4,2,3,4,5,3,2,4,4,4,3,3,1,3,4,5,5,4,4,4,2,3,3,3,3,4,3,3,2,3,4,4,3,2,3,2,3,2,2,2,4,4,3,3,5,2,3,4,4,3,3,3
Serbia,1968,2,1,1,6,1.64,62,3,1,0,0,2,NA,1,2,36.7,37.8,37.25,44.81860352,20.46809387,45,10,11:00:49,6,1,1,1,NA,4,4,2,2,8,4,8,6,1,NA,1,NA,3,8,8,1,1,NA,2,LN grupa,LB grupa,NA,NA,NA,4,5,NA,NA,NA,1,4,5,5,5,4,3,4,5,5,2,5,5,2,2,3,1,1,1,1,2,1,1,2,3,1,1,1,1,1,2,1,1,1,1,1,2,1,1,1,1,1,1,1,1,1,1,1,1,2,4,2,1,1,1,3,1,1,1,1,2,1,1,1,1,2,1,5,1,1,1,1,1,1,NA,1,NA,3,2,4,5,1,NA,5,5,5,5,5,4,3,3,3,3,1,1,1,1,2,2,1,1,1,2,1,1,1,1,2,1,1,1,2,1,3,1,3,2,1,1,2,1,2,2,4,4,3,2,1,1,4,2,5,4,3,4,3,3,2,5,4,4,4,4,4,4,4,1,1,2,4,3,3,3,3,2,2,4,4,4,3,2,2,1,1,1,1,1,3,4,1,1,1,1,1,1,1,1,4,2
METU,1969,1,1,1,7,1.78,80,4,1,0,0,2,NA,1,2,35.4,36.3,35.85,39.92300415,32.83779907,60,9,10:05:37,3,2,1,1,NA,4,4,4,4,3,3,5,4,1,NA,1,NA,3,1,4,1,1,NA,1,NA,NA,NA,NA,NA,NA,NA,NA,NA,NA,3,4,2,4,3,5,2,2,1,4,3,2,4,3,3,4,3,3,2,3,3,4,3,4,3,2,3,1,1,1,1,1,1,1,1,1,3,1,3,1,3,1,1,1,1,1,2,6,2,1,2,6,1,6,1,4,1,7,1,1,2,1,4,1,1,1,1,1,1,1,1,1,1,1,1,1,1,1,1,2,1,2,1,5,5,5,5,5,3,3,5,5,3,7,5,4,6,2,4,3,2,2,3,2,3,2,2,2,3,2,2,2,3,3,2,4,4,2,1,1,1,1,1,4,1,4,5,5,3,1,5,1,1,3,1,1,5,1,3,5,3,4,3,3,4,3,2,5,4,3,4,4,2,3,1,4,3,5,4,3,2,3,4,4,4,3,1,3,2,2,2,2,2,3,3,3,3,3,1
Chile,1969,2,1,1,7,1.64,51,4,1,0,0,1,NA,1,2,35.9,36.8,36.35,33.44999695,-70.66670227,80,7,11:48:14,2,1,1,3,3,1,1,4,1,8,8,8,7,1,NA,1,NA,5,1,8,3,1,NA,1,NA,NA,NA,NA,NA,NA,NA,NA,NA,NA,2,3,4,4,4,5,2,3,4,3,3,4,4,4,3,3,3,2,3,3,3,3,3,3,4,3,4,4,3,2,4,2,2,4,4,4,4,3,4,4,4,2,2,2,3,2,4,2,1,1,2,1,6,1,1,1,1,7,1,1,1,1,6,5,1,1,1,2,2,2,2,1,2,1,1,1,1,1,2,4,6,2,1,5,5,4,5,5,4,4,4,4,2,6,6,4,3,3,3,3,3,2,2,4,3,4,2,2,2,4,3,4,3,2,1,5,5,6,2,4,4,1,1,2,1,5,4,5,2,2,5,4,3,1,2,2,4,2,5,2,3,2,3,4,4,4,4,4,4,4,4,4,2,2,2,2,3,3,4,2,2,4,4,4,4,4,2,2,3,4,3,4,2,4,4,4,4,2,3
Kassel,1969,2,1,1,7,1.71,86,1,2,NA,0,2,NA,1,2,36.27,36.66,36.465,51.71710205,8.741699219,69,-1,09:54:08,1,1,1,4,4,4,4,2,1,8,1,4,1,2,1,2,4,3,1,5,1,2,1,1,NA,NA,NA,NA,NA,NA,NA,NA,NA,NA,2,1,5,2,2,2,5,5,3,2,2,1,1,3,4,4,4,3,4,3,4,3,4,5,4,2,3,1,1,1,1,1,1,1,2,4,4,3,3,3,1,1,1,1,3,1,2,4,2,4,5,2,5,4,5,3,4,2,4,2,3,5,2,4,2,5,5,5,4,5,4,4,5,5,4,3,5,5,5,6,6,6,5,4,5,4,2,3,5,5,5,5,7,5,5,5,5,5,5,3,2,3,4,4,2,5,2,3,3,2,2,2,1,4,1,4,4,7,2,2,1,2,2,4,4,4,2,2,2,2,3,5,2,1,2,3,3,2,4,4,1,3,5,5,4,2,2,3,2,2,4,3,3,3,2,2,2,4,2,4,3,2,3,4,1,2,2,4,4,4,3,2,2,2,3,3,4,1,2
VCU,1969,2,1,1,7,1.4986,52.27272727,3,1,4,0,1,10,1,2,37,37.11111111,37.05555556,37.75100708,-97.8219986,71,14.44444444,11:04:35,5,1,1,3,3,1,NA,2,2,2,2,3,3,2,2,2,2,1,NA,NA,2,1,NA,1,NA,NA,NA,NA,NA,NA,NA,NA,NA,NA,1,1,4,3,5,4,1,3,5,2,4,5,3,3,3,5,2,3,2,2,3,4,2,4,4,3,3,1,2,2,1,1,2,1,1,2,3,3,3,2,2,2,2,2,2,2,3,2,2,4,4,4,4,2,5,4,4,4,4,2,4,4,5,2,5,5,2,6,7,6,2,4,6,6,4,6,5,4,4,6,5,6,7,4,4,3,4,4,4,4,4,4,2,4,3,3,2,5,3,1,1,2,2,1,2,2,2,1,2,1,4,2,5,2,2,3,4,4,4,4,6,1,5,5,4,4,1,1,2,3,3,5,4,2,4,4,4,3,3,1,3,3,4,3,3,3,4,2,3,4,2,3,3,3,4,3,5,4,4,3,3,4,5,4,4,3,3,3,4,3,3,4,3,4,3,4,3,4,3
Oxford,1970,2,1,2,7,1.6,52,5,2,4,0,2,NA,1,2,35.3,36.2,35.75,51.75,-1.25,71,1.666666667,08:40:26,5,1,2,1,NA,1,NA,5,NA,3,1,6,2,1,NA,2,8,3,1,3,1,1,NA,2,Cowley Chess Club,NA,NA,NA,NA,7,NA,NA,NA,NA,4,3,4,5,4,5,5,5,2,5,5,3,4,3,4,3,3,2,2,4,1,4,2,4,4,1,1,1,2,1,2,1,1,1,2,4,2,4,2,2,1,1,1,1,1,2,1,2,5,5,7,7,2,7,7,5,5,3,6,5,1,6,7,2,1,2,3,6,7,2,3,2,3,3,2,1,3,2,2,6,6,2,7,5,1,5,4,1,5,5,5,4,7,6,7,6,5,6,6,1,1,2,1,1,1,1,1,1,2,1,1,1,1,2,1,4,4,6,1,3,4,1,4,1,3,5,2,1,5,5,1,4,1,2,4,1,1,3,2,1,1,1,5,5,5,5,5,5,2,1,4,1,1,4,2,1,1,2,2,3,2,3,4,4,1,1,4,4,4,2,3,4,3,1,4,4,2,2,4
Oxford,1970,1,1,1,7,1.8034,76.9,3,2,0,0,2,NA,1,2,34.9,36.6,35.75,NA,NA,71,1.666666667,07:15:03,5,1,2,1,NA,4,4,4,1,5,2,3,1,1,NA,1,NA,2,4,6,5,1,NA,1,NA,NA,NA,NA,NA,NA,NA,NA,NA,NA,4,4,1,4,4,4,3,1,4,3,4,5,5,2,2,3,2,3,2,2,2,1,2,2,2,2,2,2,3,3,2,2,3,3,1,4,2,4,4,4,2,2,1,2,2,1,3,6,2,1,2,2,1,1,3,1,1,2,2,2,2,2,2,3,1,2,2,3,1,2,2,2,2,6,2,2,2,2,2,1,3,2,2,5,5,5,5,4,5,4,4,3,6,5,4,4,6,3,3,2,3,3,2,2,3,2,2,2,2,1,2,3,2,3,4,5,7,4,2,3,2,1,3,4,4,4,2,2,1,3,2,5,5,2,4,5,4,3,3,3,2,2,5,5,3,3,2,4,4,3,3,3,2,2,2,1,2,2,3,2,2,3,3,4,2,1,2,3,3,4,3,2,3,2,2,4,2,2,1
METU,1970,2,1,2,2,1.5,53,2,2,0,6,1,2,1,2,35.9,36.4,36.15,NA,NA,55,0,11:22:00,3,2,1,2,2,4,4,4,2,2,2,7,7,1,NA,1,NA,3,1,8,8,1,NA,2,?iddetsiz ?leti?im,NA,NA,NA,NA,5,NA,NA,NA,NA,4,4,3,4,2,4,2,1,3,3,3,3,4,4,3,3,3,3,3,3,4,3,3,2,4,4,3,4,4,4,4,4,1,4,2,3,5,5,5,4,5,1,3,2,4,2,5,7,5,5,6,6,5,5,5,6,1,5,3,4,2,2,2,1,1,3,2,2,2,2,2,2,3,2,2,2,3,1,2,2,2,2,6,4,4,4,3,3,5,5,4,2,4,4,5,5,3,2,2,2,2,1,3,2,1,3,2,1,1,1,2,1,2,1,2,4,6,6,1,4,1,1,3,3,4,4,4,1,5,4,1,3,3,2,3,4,4,3,2,3,4,4,4,4,4,3,3,4,2,2,3,2,1,4,3,2,2,2,2,2,2,3,4,4,2,3,4,3,4,5,3,4,5,2,5,2,2,1,4
Poland,1970,2,1,1,7,1.7,63,3,2,4,0,2,NA,1,2,36.5,36.4,36.45,54.43469238,18.57080078,81,2,11:11:32,9,1,1,1,NA,4,2,4,2,8,2,6,1,1,NA,2,8,6,8,8,3,1,NA,1,NA,NA,NA,NA,NA,NA,NA,NA,NA,NA,4,4,4,5,4,2,3,5,4,5,4,4,4,2,2,2,5,4,4,4,5,4,3,3,3,4,1,2,2,2,1,1,1,1,1,2,2,1,2,1,2,1,1,1,2,1,2,1,1,1,1,1,1,2,1,1,7,7,7,1,1,1,2,7,1,7,1,2,1,1,1,1,1,2,2,1,2,1,1,2,2,1,2,5,5,5,5,5,5,5,5,5,2,3,3,3,3,3,3,2,4,1,2,2,2,2,2,2,1,2,3,2,1,1,2,4,5,5,3,4,3,4,1,4,4,5,2,4,2,2,2,4,2,5,4,2,4,4,2,5,3,4,4,4,4,4,4,5,2,4,4,2,1,2,1,2,2,4,2,4,2,2,3,4,2,4,1,4,5,5,4,4,2,4,5,4,4,5,5
Bamberg,1970,2,1,1,7,1.67,62,4,1,3,0,2,NA,1,2,36.8,36.6,36.7,50.09939575,8.714202881,76,-3,09:56:36,1,1,1,3,3,4,2,2,1,4,1,3,2,1,NA,1,NA,3,2,8,2,1,NA,1,NA,NA,NA,NA,NA,NA,NA,NA,NA,NA,5,5,5,4,3,4,5,5,5,4,5,5,4,2,3,2,2,1,1,2,3,1,2,3,3,1,2,1,3,2,3,1,1,1,1,4,4,4,4,1,3,1,1,1,1,1,3,6,2,2,5,2,1,3,4,1,2,5,1,4,1,1,1,1,1,1,1,5,4,4,4,2,1,1,1,4,1,2,1,5,5,1,1,5,5,5,5,2,4,5,5,5,5,4,5,5,5,5,6,2,2,1,1,2,3,2,1,3,1,2,1,1,2,3,1,5,6,5,2,4,4,4,4,2,2,5,4,3,5,5,4,1,1,2,1,1,4,2,4,3,4,5,5,4,2,3,2,5,3,3,5,1,1,3,2,2,1,5,3,2,2,2,4,3,2,2,2,2,5,5,5,5,2,1,5,4,4,3,1
Poland,1970,2,1,1,7,1.68,70,3,2,14,4,2,NA,1,2,37.1,36.6,36.85,52.41670227,16.96670532,59,5,11:01:10,9,1,1,4,4,4,4,1,1,8,8,2,2,2,8,2,8,6,1,8,3,1,NA,1,NA,NA,NA,NA,NA,NA,NA,NA,NA,NA,4,3,2,4,5,4,2,3,5,5,5,4,4,3,3,3,4,4,4,4,3,2,4,3,4,4,3,2,4,2,4,2,1,4,1,3,4,4,5,4,5,2,2,2,2,2,4,1,2,1,1,7,1,1,1,1,1,6,1,2,1,1,7,2,1,1,7,4,1,2,1,1,1,1,1,7,3,3,1,6,4,1,7,5,5,5,5,5,5,5,5,5,1,3,3,2,2,2,2,2,1,4,1,1,2,3,2,2,2,1,2,3,1,4,2,4,6,6,3,3,2,3,1,2,2,5,4,4,4,4,4,4,3,1,2,2,2,2,4,3,2,4,3,5,4,4,2,4,3,3,4,3,1,2,3,1,1,2,2,2,4,3,3,4,4,2,2,5,4,1,1,3,4,3,4,3,3,3,3
Portugal,1971,1,1,1,6,1.78,78,2,1,0,0,1,20,1,2,36,36,36,38.71670532,-9.133300781,82,15,11:01:58,8,1,1,3,3,4,4,4,2,2,2,4,3,1,NA,1,NA,1,NA,NA,2,1,NA,2,Pol¨ªtico,Social,NA,NA,NA,10,6,NA,NA,NA,3,1,4,2,2,5,1,5,4,3,3,3,4,2,3,3,2,2,2,2,3,2,1,3,5,2,3,1,2,2,3,1,1,2,2,4,4,3,4,3,4,2,4,3,3,1,4,2,2,2,2,3,2,2,2,1,2,6,3,3,2,2,3,6,3,5,1,2,1,2,5,2,1,2,1,1,1,1,2,1,1,1,1,5,5,5,5,5,4,4,5,4,3,1,1,1,2,2,3,1,2,2,3,2,1,2,1,2,1,2,3,5,3,3,3,2,2,2,2,2,2,2,1,4,3,5,4,4,3,5,1,1,1,3,4,4,4,4,4,4,4,4,4,4,4,2,2,1,5,3,1,1,3,3,3,1,3,4,3,3,2,2,4,4,3,3,1,3,4,3,3,3,4,4,4,4,3,4,1
Oxford,1971,1,1,1,5,1.74,70,4,2,8,0,2,NA,1,2,35.9,36.5,36.2,51.75,-1.25,74,2.777777778,08:48:19,5,1,1,2,1,1,NA,4,2,2,2,5,2,1,NA,1,NA,2,4,8,3,1,NA,1,NA,NA,NA,NA,NA,NA,NA,NA,NA,NA,3,3,3,4,5,4,2,3,3,4,4,4,4,2,3,3,2,2,2,3,3,2,2,2,5,3,2,5,5,4,5,4,2,5,3,4,4,4,2,3,2,3,1,1,4,2,3,2,2,2,3,4,4,5,2,7,1,7,3,2,4,1,2,3,2,2,2,3,4,3,3,3,2,6,2,3,3,2,2,4,6,2,2,3,4,4,5,4,4,3,3,3,3,5,4,4,4,3,3,1,2,1,2,1,1,1,1,1,4,1,3,1,2,3,1,4,4,2,2,2,2,1,3,4,3,4,1,3,2,3,3,5,3,4,3,4,4,2,4,1,3,2,5,3,3,2,2,3,3,3,3,3,2,3,2,4,3,4,4,3,2,3,3,4,2,1,2,1,1,2,2,2,4,3,2,2,2,2,1
VCU,1971,2,1,2,7,1.6764,70.90909091,3,2,76,0,2,NA,1,2,36.33333333,36.33333333,36.33333333,37.39950562,-77.78199768,34,8.888888889,11:12:57,5,1,4,2,2,4,4,5,NA,2,2,5,5,2,1,2,8,1,NA,NA,4,2,3,1,NA,NA,NA,NA,NA,NA,NA,NA,NA,NA,5,5,5,1,4,4,2,5,2,1,5,5,5,1,2,5,1,1,1,3,4,2,3,1,5,1,5,4,4,4,4,5,2,1,5,2,4,4,2,5,2,1,2,2,5,2,2,6,3,1,6,7,5,4,7,3,6,1,7,5,5,6,3,7,1,7,3,7,3,5,1,5,5,4,3,5,7,3,5,6,6,2,5,5,5,5,5,5,5,1,2,5,7,7,7,7,6,6,7,1,2,1,2,1,1,2,4,2,1,1,1,2,5,1,1,4,6,7,4,6,4,3,1,4,1,5,4,4,5,5,1,5,2,1,5,4,4,2,5,1,5,5,4,5,5,5,5,3,5,3,4,4,2,3,3,5,5,4,4,1,1,2,5,5,5,4,2,5,5,5,5,2,2,4,5,1,3,2,4
Poland,1971,2,1,1,7,1.61,69,3,2,46,5,2,NA,1,2,36.5,36.4,36.45,52.23330688,21.01669312,75,0,10:50:44,9,1,1,3,3,3,3,2,1,8,5,4,4,1,NA,2,6,2,1,1,4,1,NA,2,sport,wino,s?siedzi,NA,NA,7,6,3,NA,NA,3,3,2,2,3,4,2,4,3,3,4,3,3,3,3,3,4,4,4,3,3,4,4,4,4,4,3,3,3,3,3,3,3,3,3,3,4,4,4,4,4,2,2,3,2,2,4,2,2,6,5,4,2,2,2,2,4,6,4,4,2,2,5,2,5,4,4,5,4,4,5,3,3,2,3,2,5,4,5,6,5,4,4,4,4,4,4,4,4,4,4,4,4,4,4,4,4,3,3,2,2,2,2,2,4,3,3,3,2,2,2,2,2,3,2,4,5,4,3,4,4,3,3,3,4,4,3,2,2,3,3,4,3,4,4,3,3,4,2,3,3,3,4,4,4,3,3,3,4,4,3,4,3,3,3,2,3,4,4,3,2,3,4,4,3,3,2,3,4,3,3,3,4,4,3,3,3,3,3
Poland,1971,2,1,1,7,1.7,65,3,2,24,2,2,NA,1,2,36.1,36.9,36.5,52.06669617,20.43330383,75,0,09:43:07,9,1,1,3,3,4,2,2,1,2,2,5,2,2,8,2,7,2,1,1,1,2,2,1,NA,NA,NA,NA,NA,NA,NA,NA,NA,NA,2,2,3,5,2,3,2,2,2,3,3,2,4,4,3,4,4,4,3,3,3,4,3,3,4,3,4,4,4,4,4,4,2,4,2,4,5,4,5,4,5,1,2,1,2,2,4,2,2,2,2,5,3,2,3,2,2,6,1,2,1,2,6,5,3,5,2,3,2,2,5,3,3,3,2,2,3,3,3,2,3,3,3,5,4,4,4,3,5,3,4,4,1,3,3,2,2,2,2,2,1,3,2,2,2,3,2,2,1,2,4,2,1,2,2,4,5,5,5,4,6,2,2,4,2,5,2,4,2,2,2,5,2,2,3,5,2,2,4,5,4,4,4,4,4,2,2,4,5,4,4,5,2,2,2,1,2,2,4,1,2,2,2,5,2,2,2,4,5,2,2,2,4,2,4,4,4,2,4
Poland,1971,2,1,1,6,1.6,65,3,1,7,0,2,NA,1,2,36.6,36.7,36.65,52.25,21,67,2,11:28:14,9,1,1,3,3,4,4,4,1,6,6,6,4,2,1,2,8,3,6,8,1,1,NA,1,NA,NA,NA,NA,NA,NA,NA,NA,NA,NA,3,3,4,5,3,3,3,3,4,5,3,4,3,3,4,4,3,4,4,2,2,2,4,4,3,3,3,2,4,3,4,1,1,4,1,2,4,4,4,4,4,2,1,1,1,1,4,2,2,3,5,4,4,1,2,2,2,6,1,1,1,1,5,6,1,3,4,7,2,2,2,1,2,3,3,1,4,5,2,7,7,4,5,5,5,5,5,5,5,5,5,5,1,3,2,2,2,2,2,2,3,1,3,2,4,2,3,1,2,3,4,2,1,3,1,5,7,7,7,7,6,6,4,4,2,4,1,4,2,2,3,5,4,2,4,4,3,3,2,2,3,4,3,5,3,4,3,4,4,3,5,5,1,2,2,2,2,3,2,1,4,4,2,4,4,3,1,5,5,3,3,4,1,2,4,2,2,2,2
Poland,1971,2,1,1,7,1.64,59,3,2,0,18,2,NA,1,2,37,36.9,36.95,53.23330688,20.18330383,69,-5,10:24:27,9,1,2,1,NA,4,4,5,4,8,5,6,6,2,5,2,5,3,2,2,1,2,2,1,NA,NA,NA,NA,NA,NA,NA,NA,NA,NA,4,4,4,5,5,4,3,4,4,4,4,5,5,3,3,3,4,4,4,3,4,3,4,2,4,4,3,2,2,2,2,3,3,3,2,2,3,3,3,3,3,3,3,3,3,3,3,2,4,2,2,4,2,4,2,4,2,6,4,2,2,2,4,2,1,2,2,5,2,1,1,2,2,2,2,2,2,2,2,3,4,2,2,5,5,5,5,5,5,5,5,5,5,3,4,3,3,3,4,2,3,3,3,1,2,2,3,3,1,1,2,2,1,3,2,3,5,5,5,5,5,5,1,5,1,5,1,4,3,3,4,5,3,1,1,5,5,1,5,3,3,4,3,4,4,5,4,5,5,4,4,4,2,2,2,4,3,3,3,2,3,3,3,4,3,3,1,1,4,4,3,4,3,4,4,4,4,2,3
METU,1972,2,3,1,7,1.58,61,3,1,1,1,2,NA,1,2,35.4,36,35.7,41.01359558,28.95500183,64,2,10:33:07,3,2,1,2,8,4,2,4,4,6,3,6,3,1,NA,2,2,3,1,8,1,1,NA,2,1,NA,NA,NA,NA,NA,NA,NA,NA,NA,2,3,5,2,3,2,3,3,3,5,3,3,3,3,3,3,3,3,3,2,3,3,3,3,3,3,2,3,3,4,4,4,1,2,4,2,5,3,4,3,4,1,1,3,3,4,3,6,5,5,4,6,2,5,5,5,5,5,4,3,3,3,6,5,2,2,3,2,6,3,3,2,6,2,2,2,3,2,3,2,2,4,3,5,5,5,4,5,5,4,4,3,6,4,4,4,3,4,4,3,4,3,4,3,4,3,2,4,3,2,4,3,3,4,2,3,6,5,3,3,4,4,1,1,5,3,2,1,4,4,3,4,4,2,2,3,3,4,3,4,3,4,4,4,4,4,3,5,5,4,4,4,1,1,5,4,3,4,3,3,3,3,3,4,4,4,1,5,2,4,4,3,2,4,4,3,3,2,4
Oxford,1972,2,1,1,7,1.7018,75.90909091,3,2,3,0,2,NA,1,2,35.7,36.9,36.3,51.75,-1.25,71,1.666666667,08:05:31,5,1,1,4,4,2,2,1,NA,8,4,7,3,1,NA,1,NA,3,1,4,8,2,4,2,Forest school,aikido,NA,NA,NA,3,5,NA,NA,NA,3,4,2,2,3,1,1,1,1,2,2,4,4,4,2,2,3,3,2,2,3,2,2,1,3,2,2,1,1,1,1,1,1,1,1,1,4,1,4,1,1,1,1,1,1,1,4,2,4,6,7,4,5,3,5,4,5,2,6,2,4,2,7,4,4,3,5,5,2,3,2,2,5,4,7,4,7,5,1,2,4,6,6,5,5,4,5,5,4,3,4,4,3,1,2,2,2,2,3,2,2,1,2,1,2,1,1,1,2,1,2,2,2,4,2,5,7,4,4,5,2,6,1,4,4,4,2,2,4,4,1,4,3,1,3,4,4,2,1,2,4,4,4,4,4,4,4,2,3,4,2,3,3,3,5,2,1,3,2,2,2,2,1,5,1,1,3,2,2,2,2,4,1,1,1,4,1,1,4
Portugal,1972,1,1,1,2,1.64,66,4,2,0,0,2,NA,1,2,36.4,36.6,36.5,38.71670532,-9.133300781,75,11,11:06:20,8,1,1,3,3,4,2,4,1,3,3,4,3,1,NA,1,NA,2,4,6,3,1,NA,1,NA,NA,NA,NA,NA,NA,NA,NA,NA,NA,2,2,5,4,4,4,3,4,4,4,4,4,5,3,4,4,2,2,2,2,3,2,3,3,4,2,3,4,2,2,2,4,2,4,2,4,2,4,2,4,2,2,2,2,4,2,2,5,2,6,2,5,2,6,5,1,2,2,5,2,2,2,5,2,5,5,2,6,1,2,2,2,1,2,2,5,5,2,2,6,6,2,2,3,3,3,4,3,3,3,3,4,4,6,6,6,6,5,5,2,2,2,3,2,2,2,5,3,2,2,3,5,3,3,3,3,4,4,4,3,4,4,2,4,4,4,2,3,3,3,2,2,4,2,3,4,3,4,4,3,4,3,4,4,3,3,3,3,4,2,2,4,2,4,4,2,2,4,4,3,2,3,3,4,3,2,3,4,4,3,3,4,4,4,4,4,3,4,2
Poland,1972,2,1,1,7,1.72,83,3,1,6,4,2,NA,1,2,36.79,36.28,36.535,53.03579712,18.60479736,76,-4,10:26:52,9,1,1,3,3,2,2,2,1,5,2,5,5,2,1,2,5,6,1,6,3,1,NA,1,NA,NA,NA,NA,NA,NA,NA,NA,NA,NA,2,3,4,5,4,5,2,3,2,4,4,2,4,2,4,4,4,4,4,4,4,3,2,3,4,3,3,4,4,4,3,3,4,3,4,4,5,4,5,4,5,2,1,2,2,1,5,1,1,2,2,2,2,2,2,1,1,6,2,2,4,2,4,2,2,2,1,2,2,1,2,4,1,2,1,1,2,1,4,3,3,4,2,5,5,5,5,5,5,5,5,5,4,4,3,3,3,4,2,1,2,2,2,1,2,2,2,2,2,2,2,2,1,3,1,4,5,6,3,4,4,4,1,3,2,5,4,5,3,2,3,3,4,1,2,4,5,2,4,3,3,4,3,4,3,5,3,5,5,3,5,5,2,3,2,1,3,4,2,2,2,5,3,4,4,3,1,2,5,5,3,3,3,3,5,3,4,2,4
Oxford,1972,2,1,2,6,1.6256,53.18181818,1,1,21,40,2,NA,1,2,36.4,36.9,36.65,51.75,-1.25,74,2.777777778,08:56:11,5,1,3,2,2,4,2,5,NA,4,1,8,5,1,NA,1,NA,3,1,8,1,1,NA,2,choir,NA,NA,NA,NA,7,NA,NA,NA,NA,3,3,3,5,3,2,4,3,3,3,3,5,5,4,3,2,3,2,2,4,4,3,4,4,2,2,3,3,5,3,5,3,3,3,4,5,2,2,1,1,1,2,2,1,1,1,1,4,4,4,5,4,3,4,5,4,4,4,4,4,4,4,5,5,4,4,3,3,3,2,3,3,3,3,3,3,3,3,3,3,3,3,3,4,4,4,4,4,4,4,4,4,2,2,2,2,2,2,2,2,2,4,3,3,4,3,3,2,4,3,3,2,4,2,3,5,6,3,4,4,1,1,1,1,1,5,5,3,3,3,5,1,1,1,1,1,5,1,5,4,2,4,4,3,3,4,4,4,3,4,3,3,2,2,2,4,4,4,4,4,2,3,4,2,4,3,3,4,4,3,3,4,3,2,4,3,4,2,2
Oslo,1972,2,1,1,7,1.64,64,2,2,9,0,1,3,1,2,36.8,36.7,36.75,NA,NA,53,-2,11:24:27,4,1,4,3,3,2,2,5,NA,6,3,6,3,1,NA,1,NA,3,1,8,1,1,NA,1,NA,NA,NA,NA,NA,NA,NA,NA,NA,NA,2,3,2,4,4,2,3,2,3,3,5,2,4,2,4,3,3,2,2,2,4,3,3,2,5,2,4,2,3,2,3,4,2,4,4,4,4,4,2,2,2,1,1,1,1,4,3,7,6,4,7,7,5,3,6,6,1,7,4,2,2,7,5,6,1,3,3,6,6,3,5,4,4,5,3,2,3,2,4,3,4,5,3,4,4,4,2,2,3,3,4,3,4,2,3,3,2,2,2,3,1,5,2,3,2,3,2,1,1,2,1,1,1,2,1,5,6,4,1,3,3,3,1,4,2,4,2,5,3,3,3,2,4,1,1,4,4,2,4,3,2,3,4,2,4,5,2,4,3,4,4,2,1,1,1,4,3,3,4,2,2,2,2,4,2,2,2,2,4,4,4,4,1,2,5,1,1,3,3
Poland,1972,2,1,1,7,1.69,63,3,2,29,0,2,NA,1,2,36.8,36.9,36.85,52.59309387,19.08940125,96,NA,11:25:08,9,1,3,2,2,2,2,2,2,8,6,4,4,2,8,2,8,6,1,3,3,1,NA,1,NA,NA,NA,NA,NA,NA,NA,NA,NA,NA,4,5,5,4,5,1,2,5,4,3,5,4,1,2,3,3,4,4,4,4,2,4,4,2,5,5,2,2,2,2,2,2,2,2,2,2,2,2,2,2,2,2,2,2,2,2,3,1,2,1,1,4,2,1,1,2,1,6,2,2,2,1,2,1,2,2,2,6,1,2,2,2,1,1,2,1,6,4,2,6,6,1,2,4,5,4,5,5,5,4,4,4,1,1,1,1,2,2,2,3,2,4,1,2,4,2,2,2,1,2,2,4,2,4,3,5,2,6,3,4,2,3,2,4,1,5,4,3,3,4,2,2,4,4,2,4,4,2,5,5,2,3,2,4,3,3,2,4,4,3,4,3,1,1,1,1,4,4,4,2,2,4,4,4,3,2,2,4,4,2,3,3,4,4,3,2,2,4,2
Oslo,1973,2,1,2,6,1.72,62,3,1,0,1,2,NA,2,2,36,35.9,35.95,59.91270447,10.74609375,70,-2,11:57:05,4,1,3,3,3,4,2,5,NA,2,2,7,3,1,NA,2,5,1,NA,NA,2,1,NA,1,NA,NA,NA,NA,NA,NA,NA,NA,NA,NA,3,3,5,4,5,5,1,3,4,3,3,4,3,2,3,4,2,2,3,3,3,2,3,3,4,2,2,1,1,1,2,1,1,2,4,4,2,2,1,2,1,1,1,1,1,1,1,6,2,5,3,6,5,2,3,5,5,5,5,6,2,2,3,3,1,2,1,5,1,1,1,1,2,2,5,5,2,1,1,5,5,1,6,3,5,4,5,5,3,2,4,2,6,3,5,5,5,3,3,4,1,4,2,1,4,4,1,1,4,1,2,1,1,1,1,5,7,6,2,3,3,4,4,5,3,5,2,1,4,3,3,5,3,4,3,5,4,2,2,4,4,4,4,3,4,5,5,5,3,4,5,3,1,1,3,3,4,4,4,2,2,4,3,5,2,2,3,4,1,4,5,5,2,2,4,1,3,4,2
Serbia,1973,2,1,1,7,1.68,52,4,2,0,0,2,NA,1,2,36.1,36.4,36.25,44.81860352,20.46809387,45,10,11:24:32,6,1,4,1,NA,4,4,4,4,8,6,8,8,1,NA,1,NA,3,1,8,3,1,NA,2,udruzenje terapeuta,NA,NA,NA,NA,3,NA,NA,NA,NA,4,4,4,4,3,4,4,4,3,4,3,3,3,3,3,3,2,1,1,2,3,2,2,3,5,1,3,1,1,1,2,1,2,3,1,2,3,1,1,3,1,1,1,1,1,1,1,2,1,1,3,4,1,1,3,NA,2,NA,5,4,2,1,2,2,2,2,3,5,NA,3,2,4,3,3,NA,3,4,3,3,7,6,3,3,5,5,5,5,4,4,3,4,4,3,4,4,4,5,4,5,1,2,2,3,1,1,3,2,2,3,1,2,2,2,1,1,4,5,3,2,3,3,3,3,3,4,4,2,2,2,2,2,4,3,2,3,3,4,2,4,4,4,4,4,3,4,4,2,2,4,2,3,3,2,2,2,2,4,4,3,4,2,3,2,4,2,2,2,4,3,5,3,3,3,3,2,2,3,4,1
Oxford,1973,1,1,2,6,1.7526,109,1,1,1,0,1,10,1,2,36.5,36.6,36.55,51.75,-1.25,89,-1.666666667,08:28:57,5,1,4,1,NA,4,2,5,NA,8,3,4,4,1,NA,2,8,1,NA,NA,4,2,2,2,ODAA,NA,NA,NA,NA,1,NA,NA,NA,NA,2,1,4,5,2,2,3,3,2,4,3,2,3,4,3,3,3,3,3,4,4,1,3,2,4,3,3,3,4,3,3,2,4,3,4,4,2,3,3,2,3,2,4,3,2,1,3,3,2,3,2,3,3,3,3,3,1,5,2,5,4,5,3,3,2,3,2,4,3,3,3,4,4,4,3,3,2,2,3,3,4,6,2,3,3,2,4,3,4,5,4,4,6,6,7,6,7,6,6,3,3,2,3,4,4,4,4,4,5,3,2,2,3,4,1,3,3,2,2,2,3,3,3,2,3,4,4,2,3,4,3,2,4,2,4,3,2,3,1,4,2,3,4,4,4,4,3,4,3,4,2,3,2,1,2,3,5,4,4,5,2,2,1,4,3,2,4,4,3,2,2,3,2,4,3,4,2,2,2
Chile,1973,2,1,2,7,1.67,59,4,3,0,0,1,NA,1,2,36.4,36.9,36.65,33.44999695,-70.66670227,68,13,11:52:17,2,1,4,1,NA,2,2,5,NA,4,2,8,4,1,NA,2,6,4,8,3,1,2,2,1,NA,NA,NA,NA,NA,NA,NA,NA,NA,NA,4,3,1,5,4,5,1,5,5,5,1,4,5,1,2,3,3,1,1,1,2,2,2,1,4,2,1,5,4,3,4,3,1,3,1,5,5,5,5,5,4,1,1,1,4,3,5,2,1,1,6,4,7,2,1,2,1,6,1,1,2,1,2,1,1,1,1,5,1,1,1,1,1,2,1,1,2,1,1,7,4,7,2,5,5,5,5,4,4,4,5,4,2,4,3,4,4,4,4,1,1,1,1,1,1,2,2,2,2,1,1,3,2,2,1,4,2,3,1,1,3,3,2,1,5,3,1,2,4,1,1,5,3,1,5,4,1,3,1,3,4,4,1,2,5,5,5,5,5,5,5,5,1,1,2,4,5,5,2,4,2,1,2,2,2,4,4,4,4,2,2,4,2,3,5,5,3,2,2
Poland,1973,2,1,1,4,1.72,72,3,2,1.5,2.5,2,NA,1,2,36.9,36.5,36.7,54.36079407,18.65829468,80,6,09:48:59,9,1,4,2,2,2,2,4,3,1,NA,3,3,1,NA,2,3,2,1,1,3,2,2,2,Klub ebookow,NA,NA,NA,NA,2,NA,NA,NA,NA,1,2,3,4,3,2,1,1,2,4,4,3,4,2,3,3,5,5,4,4,2,4,4,2,4,3,2,4,4,4,5,4,2,5,2,4,4,4,4,4,4,1,2,1,1,1,2,1,1,2,2,6,5,2,5,7,2,6,1,1,1,1,5,1,1,2,2,7,2,2,5,2,2,1,2,2,7,6,1,7,7,5,2,5,5,5,5,5,5,2,3,2,4,3,3,3,3,3,3,4,3,1,4,2,4,4,2,4,2,2,2,2,1,1,1,4,7,7,5,4,5,5,1,1,3,5,1,5,5,4,5,5,2,1,4,5,5,4,2,2,2,4,5,4,4,4,4,4,4,3,2,4,1,1,1,1,1,1,1,5,1,1,2,5,2,1,1,2,4,4,3,4,3,2,3,4,2,2,2
Serbia,1973,2,1,2,6,1.73,75,1,2,0,0,2,NA,1,2,37,36.9,36.95,44.81860352,20.46809387,88,9,11:16:45,6,1,4,1,NA,2,2,5,NA,4,3,6,5,1,NA,1,NA,3,1,8,4,1,NA,1,NA,NA,NA,NA,NA,NA,NA,NA,NA,NA,3,2,3,3,2,2,2,3,3,3,2,2,3,3,4,4,2,3,2,3,3,3,3,4,4,2,3,1,2,1,2,1,1,3,1,3,3,3,2,3,1,1,1,1,2,4,3,4,4,2,5,8,8,5,4,5,8,4,4,5,4,3,8,3,2,2,NA,8,1,2,2,3,NA,NA,NA,NA,3,NA,2,6,7,NA,4,5,5,5,5,5,5,3,5,5,5,5,5,3,6,6,6,2,2,4,2,2,2,2,2,2,2,2,2,1,1,3,2,4,6,6,3,3,2,2,3,5,3,3,1,3,4,2,2,5,4,4,3,3,2,2,4,4,3,4,4,4,4,4,2,2,1,3,3,3,3,4,2,2,4,3,3,2,4,2,2,4,3,2,3,5,4,4,4,4,1,3,1,3,3,3,3
Chile,1974,2,1,1,5,1.64,56,3,2,0,2,2,0,1,2,35.7,36.8,36.25,33.44999695,-70.66670227,81,7,11:31:30,2,1,1,3,3,4,2,4,1,3,3,3,3,1,NA,1,NA,5,8,8,2,1,NA,2,Jsb,Familia,Spicee girls,Jsb prime,Solo nosotras,3,4,4,2,4,4,5,5,3,4,4,3,4,5,5,5,4,5,2,2,4,2,3,2,3,3,2,2,3,4,2,3,4,4,4,4,3,3,4,5,4,4,4,4,4,5,4,4,3,4,2,4,2,2,1,2,2,6,1,2,3,5,2,4,2,2,2,2,2,2,2,2,7,2,2,2,2,2,2,4,3,5,2,1,6,7,6,4,4,4,4,4,4,4,4,4,5,2,3,2,2,3,2,2,2,1,3,1,2,4,4,1,3,3,1,2,2,1,2,2,4,5,4,4,4,4,4,1,4,1,5,5,4,4,3,3,2,1,2,1,1,4,2,5,1,3,4,5,4,3,5,4,4,4,4,4,4,2,2,3,2,5,5,4,2,1,2,3,1,4,2,1,3,4,2,3,2,4,2,2,3,4,1,2
Chile,1974,2,1,1,6,1.52,50,5,2,0,1,1,NA,1,2,36.4,36.6,36.5,33.44999695,-70.66670227,75,3,11:41:30,2,1,1,3,3,4,2,1,NA,6,3,6,5,1,NA,2,8,1,NA,NA,1,1,NA,1,NA,NA,NA,NA,NA,NA,NA,NA,NA,NA,3,3,3,4,2,4,3,2,4,4,4,2,4,2,2,3,3,3,2,3,2,2,3,2,4,2,2,2,1,1,3,1,1,2,4,2,4,2,1,2,1,1,2,3,3,1,2,2,1,2,1,1,5,2,2,4,5,2,2,4,1,1,6,1,1,1,5,5,3,2,3,1,5,3,5,3,7,3,2,7,7,5,5,5,5,5,5,5,4,4,5,5,3,6,4,4,3,3,3,1,1,1,2,1,1,1,1,1,1,1,2,2,2,1,3,4,4,4,2,2,2,1,1,2,1,5,4,3,1,3,3,4,1,1,2,2,4,1,2,3,3,3,1,5,3,5,4,3,4,3,4,3,1,1,1,1,1,1,2,4,1,3,4,4,3,1,1,3,4,3,3,4,4,3,3,4,4,3,1
Poland,1974,2,1,1,7,1.65,72,3,2,6,1,2,NA,1,2,36.5,36.6,36.55,52.23330688,21.01669312,78,8,11:01:48,9,1,1,3,3,2,2,4,1,8,3,6,6,2,3,2,8,2,4,1,3,1,NA,2,?wiczenia,NA,NA,NA,NA,7,NA,NA,NA,NA,5,4,3,5,4,5,1,3,4,5,4,5,5,3,3,4,4,5,5,4,3,3,4,2,5,5,2,1,1,1,1,1,1,1,1,1,4,2,4,2,3,1,1,1,1,1,3,4,4,1,1,6,2,1,1,2,4,4,2,2,2,1,4,1,1,2,1,4,1,2,1,1,1,2,2,1,6,3,1,4,4,2,2,4,5,5,5,5,3,4,4,3,1,2,3,1,2,3,2,2,3,1,3,1,3,2,3,2,1,3,2,3,1,3,2,4,5,4,5,2,1,1,3,3,3,4,3,4,2,4,4,3,2,2,3,3,3,3,2,3,3,5,5,3,3,4,4,5,3,3,3,3,1,1,2,1,1,3,3,2,3,3,4,5,3,2,1,5,3,4,3,3,3,2,4,3,2,3,2
Oxford,1975,1,1,2,6,1.778,69.85,4,2,0,6,1,15,1,2,34.9,35.9,35.4,51.75,-1.25,89,-1.666666667,09:23:38,5,1,2,1,NA,4,4,5,NA,1,NA,6,3,1,NA,1,NA,3,2,6,1,1,NA,1,NA,NA,NA,NA,NA,NA,NA,NA,NA,NA,4,2,2,2,1,1,4,2,2,5,4,3,5,4,2,4,4,4,3,4,3,3,2,4,3,2,1,4,4,2,5,2,2,4,4,4,2,2,2,4,2,2,2,2,3,2,2,5,5,3,5,5,3,1,6,5,2,6,3,3,2,3,3,6,1,2,2,5,3,3,2,5,5,3,2,4,2,3,3,4,5,4,2,4,3,4,3,3,2,4,3,2,6,5,5,3,2,5,4,1,1,1,2,2,1,2,2,4,1,1,2,4,3,4,2,4,4,5,4,4,1,2,4,4,4,5,4,2,2,2,2,4,2,2,4,3,3,2,4,4,1,4,5,4,2,2,4,3,2,4,3,2,3,4,3,1,2,2,4,3,4,5,4,4,1,1,4,4,3,1,2,4,4,2,2,4,2,2,1
Poland,1975,2,1,1,2,1.6,49,4,2,NA,NA,2,NA,1,2,36.3,35.9,36.1,52.25,21,58,-3,10:47:22,9,1,1,3,3,4,1,3,3,1,NA,1,1,1,NA,2,6,6,8,8,1,1,NA,2,grupa taneczna kizomba,NA,NA,NA,NA,5,NA,NA,NA,NA,3,3,2,3,3,5,2,5,4,4,4,2,2,3,5,4,4,4,4,3,3,3,3,4,2,4,3,2,2,1,2,2,1,1,1,1,4,2,2,2,1,1,2,2,1,2,2,6,5,6,5,7,5,3,2,6,1,2,5,3,6,6,6,4,1,1,2,4,1,1,1,1,3,1,1,1,2,2,1,6,6,2,1,5,5,5,5,5,4,3,4,3,1,2,1,1,1,2,2,3,3,2,3,2,2,2,2,2,2,2,2,2,2,3,3,4,4,5,3,3,3,1,1,5,1,5,4,5,1,1,5,1,1,1,4,2,4,1,5,4,3,4,4,5,4,5,3,5,3,3,4,3,1,4,1,3,2,4,3,2,2,2,3,4,3,2,2,4,4,3,3,3,2,3,4,4,3,4,4
Chile,1975,2,1,2,4,1.6,73,2,1,0,0,2,0,1,2,36.1,36.1,36.1,33.42628098,-70.56655884,62,11,11:36:17,2,1,3,2,2,4,4,5,NA,7,4,8,5,1,NA,1,NA,4,1,3,2,1,NA,2,fundaci¨®n,NA,NA,NA,NA,4,NA,NA,NA,NA,4,2,2,3,3,4,2,1,4,2,4,2,5,2,2,3,1,1,2,4,4,2,3,2,3,3,3,4,4,4,4,2,1,3,1,3,4,4,4,4,1,1,4,2,4,1,4,6,3,6,6,5,6,2,7,5,6,3,5,5,5,6,6,7,2,5,6,7,1,6,4,5,5,3,3,5,5,3,5,7,2,1,3,5,5,5,5,3,4,2,4,4,6,5,5,4,5,5,5,2,2,5,3,2,3,4,3,2,1,3,4,1,1,2,4,5,7,5,5,6,6,6,1,1,2,4,2,4,2,2,4,5,4,2,4,4,3,2,2,3,4,3,5,4,5,5,5,4,3,4,3,2,2,4,4,4,2,3,2,5,2,2,2,2,4,4,2,5,5,4,5,5,2,4,4,5,3,5,5
METU,1975,2,1,2,7,1.72,64,2,1,NA,0,2,NA,1,2,35.7,36.6,36.15,39.92300415,32.83779907,66,5,11:09:22,3,2,2,1,NA,4,4,5,NA,4,3,3,3,1,NA,1,NA,3,8,8,2,1,NA,1,NA,NA,NA,NA,NA,NA,NA,NA,NA,NA,2,5,5,5,5,5,5,4,4,4,5,3,5,4,4,4,3,3,3,3,4,4,3,4,4,2,3,4,3,2,4,4,3,2,4,4,3,4,3,3,4,2,2,3,3,3,3,6,2,6,5,7,7,5,7,6,5,6,2,6,2,5,6,2,1,5,6,3,6,6,2,5,6,5,2,1,3,1,5,3,3,6,6,5,3,3,4,5,5,4,5,5,4,4,3,4,4,4,4,2,2,2,2,1,4,1,1,1,1,2,1,1,3,1,2,5,6,6,5,5,5,5,5,1,3,5,1,3,2,4,2,5,5,1,2,5,5,2,2,4,3,4,2,4,5,5,1,5,4,5,5,4,1,1,1,1,2,4,4,1,1,4,3,3,2,2,1,4,2,5,5,4,1,5,5,1,2,1,4
Poland,1975,2,1,1,5,1.55,50,4,1,1,0,2,NA,1,2,36.6,35.9,36.25,53.41670227,14.58329773,75,-1,10:13:53,9,1,1,2,2,4,4,4,4,8,6,6,6,2,1,2,4,6,2,8,2,1,NA,2,ZNP,NA,NA,NA,NA,5,NA,NA,NA,NA,3,3,4,4,3,3,2,4,2,4,4,3,3,3,3,3,4,4,4,4,2,4,4,3,4,4,2,2,3,2,4,2,1,2,3,2,3,2,4,2,3,2,2,1,2,2,3,1,1,1,1,4,2,1,1,2,2,7,2,2,2,1,5,2,1,2,3,4,1,1,2,1,2,1,3,2,3,3,1,5,5,1,3,4,4,4,4,5,4,3,4,4,1,2,2,1,2,2,2,2,2,1,2,2,2,2,2,2,2,1,3,4,2,2,3,2,2,4,2,2,2,2,2,4,3,4,3,2,2,3,2,4,3,2,4,3,3,4,2,2,3,5,2,2,4,4,3,3,3,3,4,4,2,2,2,1,2,3,3,2,3,3,3,4,4,2,2,4,3,2,3,4,3,4,3,3,3,4,2
VCU,1975,1,1,1,7,1.8034,159.0909091,2,2,14,0,2,NA,1,2,36.27777778,36.22222222,36.25,37.44490051,-77.2983017,91,14.44444444,10:00:50,5,1,1,1,NA,4,2,2,1,5,4,2,2,1,NA,2,1,3,8,6,1,1,NA,1,NA,NA,NA,NA,NA,NA,NA,NA,NA,NA,2,2,2,3,2,2,1,2,3,3,5,2,5,3,4,3,2,3,2,4,3,3,2,3,5,4,3,3,4,2,4,2,2,4,4,4,4,4,3,4,3,2,2,2,2,2,4,2,2,3,2,2,1,2,5,2,2,1,1,4,1,5,2,2,2,5,4,7,4,6,4,5,3,3,3,3,3,2,4,4,7,2,2,4,4,5,5,3,4,4,4,4,5,6,6,5,4,3,4,2,2,1,2,1,2,2,2,5,3,3,1,2,2,2,2,2,4,1,3,2,2,2,4,4,5,4,1,2,3,2,2,5,4,2,5,5,5,3,2,4,1,1,5,5,2,3,4,4,3,3,4,4,2,2,3,2,4,5,5,2,1,4,5,2,4,1,4,3,4,2,4,2,4,3,2,4,3,2,1
Poland,1975,2,1,1,7,1.67,58,3,2,4,4,2,NA,1,2,37,35.7,36.35,52.25,21,70,1,11:33:36,9,1,1,3,3,4,2,4,4,3,3,5,5,1,NA,2,8,2,1,1,1,2,7,1,NA,NA,NA,NA,NA,NA,NA,NA,NA,NA,4,3,2,5,5,5,1,3,2,2,2,4,4,3,4,4,4,4,4,3,4,2,3,4,4,4,3,4,2,1,1,2,1,2,1,1,4,3,4,4,4,1,1,1,2,1,4,4,2,2,2,4,3,2,5,2,2,6,4,4,1,1,6,7,5,5,2,2,2,7,5,5,6,6,5,2,5,6,5,4,6,2,2,5,5,5,5,5,5,5,5,5,4,4,4,4,4,3,3,4,2,2,2,4,3,4,2,2,2,4,3,1,1,3,2,5,7,7,6,6,6,6,5,5,3,5,2,2,2,2,4,5,5,1,4,5,4,3,4,2,4,4,4,4,2,4,4,4,2,3,4,2,1,4,3,2,2,4,2,2,2,3,3,4,3,2,3,5,5,4,3,4,4,2,4,4,4,4,4
Poland,1975,2,1,1,7,1.7,52,3,2,3,0,2,NA,1,2,36.2,36.5,36.35,52.59309387,19.08940125,69,NA,11:15:23,9,1,1,4,4,3,1,2,1,8,6,8,7,2,5,2,8,2,1,1,2,1,NA,1,NA,NA,NA,NA,NA,NA,NA,NA,NA,NA,4,3,3,3,4,5,3,4,4,4,5,4,4,3,3,3,4,4,4,4,3,3,4,3,4,4,3,2,4,2,3,2,2,3,2,2,4,4,4,3,4,2,2,2,2,3,4,1,1,1,3,5,5,1,1,1,1,7,1,1,1,2,6,4,1,2,2,2,1,2,2,1,2,1,2,1,3,2,2,3,2,2,2,5,5,4,5,5,5,5,4,5,4,6,6,5,6,5,6,2,2,2,2,2,2,4,2,2,2,2,3,2,1,2,2,5,7,6,5,6,7,5,1,4,1,4,4,5,2,2,4,3,2,1,1,2,4,2,4,4,3,4,4,4,4,3,3,5,2,4,4,2,1,5,2,2,2,3,3,2,2,4,2,4,2,2,2,4,4,4,4,5,1,4,4,4,4,3,4
Chile,1975,2,1,1,7,1.56,60,3,2,2,1,1,NA,1,2,36.5,36.2,36.35,33.44999695,-70.66670227,71,12,12:10:48,2,1,1,2,2,4,4,4,2,3,2,5,5,1,NA,1,NA,5,8,8,3,2,3,2,Apoyo a un hogar,NA,NA,NA,NA,1,NA,NA,NA,NA,4,3,3,3,3,2,4,4,3,4,4,2,4,3,4,3,3,2,2,3,5,2,3,3,3,2,2,3,3,1,4,3,3,3,2,4,5,4,4,2,5,1,1,1,4,1,4,5,5,3,3,6,7,2,5,6,2,3,1,5,2,2,6,5,3,5,1,6,1,1,2,3,1,2,2,2,2,1,6,7,6,3,2,5,5,5,5,5,3,4,4,3,7,5,5,4,5,5,4,3,4,1,4,4,4,4,4,4,3,2,1,2,1,4,1,5,7,6,7,6,6,7,4,1,4,4,4,4,2,2,4,5,2,1,3,4,2,3,2,5,2,3,4,4,4,5,3,5,5,3,5,5,1,2,2,4,4,5,5,2,1,4,2,4,4,2,3,5,4,4,3,5,5,5,4,5,2,3,4
Poland,1975,2,1,1,6,1.75,78,4,2,4,0,2,NA,1,2,36.5,36.4,36.45,52.23330688,20.25,72,6,09:54:01,9,1,1,4,4,4,2,4,1,8,6,4,4,2,1,2,5,6,1,3,1,1,NA,1,NA,NA,NA,NA,NA,NA,NA,NA,NA,NA,4,4,3,5,5,2,3,3,3,4,4,4,5,2,3,3,4,4,4,4,3,3,4,2,4,4,2,4,4,2,4,2,2,2,3,2,4,2,4,3,4,2,2,1,3,1,4,2,1,1,2,4,2,1,1,2,1,7,1,2,2,1,6,5,1,2,5,5,1,2,1,2,2,2,2,3,3,2,2,7,7,2,1,5,5,4,5,5,5,5,5,5,3,3,3,3,5,4,4,1,2,1,2,1,1,2,1,1,1,1,3,1,1,2,2,3,4,6,6,6,6,6,1,4,2,5,1,3,2,2,2,4,1,1,2,4,4,3,3,2,2,5,1,3,4,4,3,4,3,4,4,3,1,3,1,1,2,4,2,4,3,2,4,2,4,3,2,4,4,3,4,4,2,3,4,3,3,3,4
Poland,1975,1,1,1,7,1.82,80,4,2,6,4,2,NA,1,2,36.5,36.5,36.5,52.25,21,68,0,10:17:18,9,1,1,1,NA,4,4,4,4,8,5,7,8,1,NA,2,8,3,3,3,2,2,8,2,NA,NA,NA,NA,NA,NA,NA,NA,NA,NA,2,4,4,4,4,2,4,4,4,4,4,4,4,2,2,2,2,2,2,2,2,2,2,2,2,2,2,2,2,2,2,2,2,2,2,2,2,2,2,2,2,2,2,2,2,2,2,2,2,2,2,2,2,4,2,2,2,6,2,2,2,2,4,2,2,2,3,2,6,2,2,2,2,3,3,5,3,3,2,3,6,3,3,4,4,4,4,4,4,4,4,4,1,2,1,1,2,2,1,1,2,2,2,2,2,2,2,2,2,2,4,2,2,2,5,3,2,2,2,2,2,1,3,3,3,3,3,3,3,3,4,4,3,3,3,3,3,3,1,2,3,4,3,2,4,4,3,4,4,3,3,3,3,3,3,2,2,4,2,2,3,2,2,4,3,2,4,3,3,3,3,3,3,3,3,3,2,2,2
Bamberg,1975,2,1,1,7,1.76,79,3,2,10,0,2,NA,1,2,36.5,36.6,36.55,53.55000305,10,73,1,11:15:27,1,1,1,1,NA,4,1,4,1,3,3,3,3,2,1,1,NA,3,1,8,2,1,NA,1,NA,NA,NA,NA,NA,NA,NA,NA,NA,NA,3,2,5,3,2,4,3,4,3,4,3,2,1,2,4,3,2,3,2,3,2,3,2,5,3,3,2,1,4,1,4,2,1,1,1,1,2,2,2,1,1,1,1,1,1,1,2,1,1,1,1,1,2,1,1,1,1,2,2,1,1,1,1,2,1,2,1,6,2,2,1,1,1,1,1,2,1,2,1,4,2,1,2,5,5,5,5,5,5,4,4,3,2,2,3,2,2,2,3,3,2,4,2,1,3,4,2,1,2,5,1,1,2,3,2,5,7,6,6,6,4,3,1,4,2,5,5,5,3,2,5,1,3,2,1,1,3,1,5,3,2,4,4,3,2,4,3,4,1,2,3,1,1,4,1,3,3,4,3,2,2,2,2,4,2,2,1,3,4,2,2,3,2,3,3,2,2,2,3
Poland,1975,2,2,1,4,1.55,50,1,2,6,0,2,NA,1,2,36.74,36.51,36.625,52.23330688,21.01669312,84,2,09:52:36,9,1,1,1,NA,4,4,1,1,8,6,8,8,2,5,2,8,6,1,3,1,1,NA,1,NA,NA,NA,NA,NA,NA,NA,NA,NA,NA,4,2,2,2,2,4,2,4,2,2,4,2,2,2,3,3,3,3,3,2,3,3,4,3,3,3,3,5,5,4,4,4,4,4,3,4,4,4,4,4,4,4,4,4,4,4,4,5,6,1,5,7,6,5,6,2,1,7,6,6,1,1,6,4,2,6,2,1,3,4,1,1,2,2,2,2,6,2,2,2,6,3,2,4,4,4,4,4,4,4,4,4,2,5,4,4,4,4,4,3,4,4,2,4,4,4,4,4,1,1,2,4,1,4,2,4,7,4,3,3,3,3,1,1,1,5,1,4,4,4,2,1,1,1,1,3,2,2,2,1,2,5,2,3,4,5,5,5,5,4,5,4,2,2,1,2,4,2,2,2,2,4,4,4,4,4,1,5,5,5,5,5,1,4,4,4,5,5,5
Poland,1975,2,1,1,7,1.65,54.8,4,2,18,4,2,NA,1,2,36.8,37,36.9,52.25,21,68,0,10:27:20,9,1,1,1,NA,4,4,4,4,3,1,4,4,2,5,2,8,3,7,8,1,1,NA,1,NA,NA,NA,NA,NA,NA,NA,NA,NA,NA,2,2,3,3,4,1,1,3,2,2,5,4,5,3,4,4,5,4,5,4,2,4,4,4,5,5,3,5,4,5,5,2,2,4,2,5,5,3,5,3,5,2,2,5,5,1,4,7,1,1,1,7,2,1,1,2,1,4,1,2,1,1,2,3,1,1,1,1,1,1,1,1,1,1,1,1,1,1,1,2,1,1,1,5,5,5,5,5,5,5,5,5,7,7,7,6,6,7,7,1,2,1,2,1,1,3,1,1,1,4,3,2,1,2,1,4,5,5,5,4,5,5,5,5,2,5,5,4,4,2,5,1,1,5,2,2,5,2,2,2,2,4,1,3,5,5,3,5,5,3,5,5,1,1,1,5,3,4,3,1,4,2,4,4,2,2,1,5,5,5,3,2,2,2,4,2,3,3,4
Poland,1975,2,1,1,6,1.73,74,4,2,4,2,1,3,1,2,36.9,37,36.95,53.41670227,14.58329773,67,1,10:08:56,9,1,1,3,3,4,1,3,3,3,2,3,2,1,NA,2,4,3,1,8,2,2,8,1,NA,NA,NA,NA,NA,NA,NA,NA,NA,NA,3,4,5,4,5,5,3,3,4,3,5,5,5,2,2,3,4,5,5,4,1,4,4,2,4,5,1,1,1,1,2,1,1,1,2,1,3,1,2,2,2,1,1,1,1,1,2,1,1,1,1,1,1,1,1,1,1,7,1,1,1,1,1,1,1,4,4,7,4,3,4,5,4,4,3,2,5,4,3,7,7,2,2,5,5,5,5,5,3,3,3,3,3,5,5,5,4,4,4,1,1,1,1,1,1,1,1,1,1,1,2,2,1,2,2,4,3,5,2,3,2,2,1,5,2,4,1,2,1,1,1,5,3,1,5,3,4,4,2,3,1,3,4,4,4,3,2,4,1,4,4,1,2,4,3,2,1,4,2,3,3,1,1,5,2,1,1,4,4,4,2,3,3,2,4,3,2,4,2
Serbia,1975,2,2,2,6,1.68,83,4,2,5,0,2,NA,1,2,37,36.9,36.95,51,9,88,9,11:45:55,6,1,2,1,NA,2,2,5,NA,2,2,6,5,1,NA,1,NA,3,1,8,2,1,NA,2,Sportska sekcija,NA,NA,NA,NA,5,NA,NA,NA,NA,3,1,3,2,2,2,2,3,1,3,4,1,3,3,4,5,3,3,4,3,2,3,3,4,4,2,4,2,3,3,3,1,1,4,1,5,2,4,2,3,2,2,3,4,2,3,2,4,2,2,3,5,2,2,2,3,2,NA,4,8,3,8,2,5,4,2,1,4,1,5,2,5,NA,NA,NA,NA,4,3,5,4,5,1,3,4,4,3,5,5,3,2,4,3,5,4,5,5,6,5,6,4,5,3,5,4,4,5,5,4,5,3,4,5,2,3,1,4,5,3,3,3,3,3,1,3,2,5,4,5,2,2,4,4,3,3,4,4,3,2,4,5,5,5,5,1,4,3,1,1,1,2,4,4,2,1,2,3,3,3,3,3,3,1,2,1,2,2,1,4,4,3,5,5,3,5,4,3,3,2,4
Oxford,1975,2,1,1,7,1.75,65.90909091,4,2,0,0,2,NA,1,2,37,36.9,36.95,51.75,-1.25,74,2.777777778,08:39:12,5,1,1,1,NA,4,4,3,3,8,6,8,4,2,4,1,NA,3,1,6,3,1,NA,2,coffee social group,"debating group, talks",NA,NA,NA,5,2,NA,NA,NA,4,3,3,3,4,3,2,3,3,3,4,4,3,3,3,3,2,2,2,2,3,3,2,3,4,2,3,3,4,3,5,3,3,3,3,4,4,3,4,3,4,2,2,3,3,3,4,1,1,1,1,1,2,1,2,1,1,2,1,2,2,2,1,4,1,3,2,2,2,2,2,2,2,2,1,1,1,1,2,2,2,2,2,5,5,5,5,5,5,4,4,5,5,3,3,3,3,4,4,2,2,2,3,2,2,2,2,2,2,2,3,2,2,3,2,5,5,3,2,3,2,2,3,3,4,4,4,2,2,2,2,4,2,2,3,4,4,2,3,4,2,2,3,3,4,4,3,5,5,4,4,3,2,2,2,2,4,3,3,3,2,3,3,2,2,2,2,4,4,3,3,3,3,2,2,3,3,3,3
Oxford,1976,1,1,2,3,1.8542,90,5,2,4,0,2,NA,1,2,35.6,35.9,35.75,51.75,-1.25,74,2.777777778,07:52:44,5,1,2,1,NA,2,2,5,NA,8,5,8,8,1,NA,1,NA,3,8,8,3,1,NA,1,NA,NA,NA,NA,NA,NA,NA,NA,NA,NA,4,3,5,5,2,2,2,2,3,4,5,2,5,2,3,2,2,2,2,2,2,2,2,2,4,2,2,4,4,4,4,4,3,4,3,4,4,4,4,4,4,4,4,4,4,4,4,4,5,4,4,5,4,5,6,4,4,4,4,4,3,4,4,5,4,3,2,4,2,3,3,3,2,4,2,2,3,2,3,2,2,2,3,5,5,5,5,5,3,4,4,4,3,7,7,7,7,7,7,2,3,1,2,3,3,3,2,4,3,1,2,4,1,3,2,3,3,6,3,3,3,3,1,1,4,4,5,3,4,5,3,1,2,2,3,3,3,3,2,4,4,4,4,2,4,4,3,4,4,4,4,4,3,3,3,3,4,4,2,4,4,2,2,2,2,4,3,4,4,4,4,4,3,4,4,4,4,4,3
Bamberg,1976,2,1,1,6,1.7,64,5,2,8,0,1,10,1,2,36.1,36.1,36.1,51,9,69,-1,11:42:22,1,1,1,3,3,4,4,4,2,4,3,3,2,2,1,1,NA,3,2,8,3,1,NA,1,NA,NA,NA,NA,NA,NA,NA,NA,NA,NA,4,3,4,5,3,5,4,4,4,5,5,5,3,2,2,3,2,2,1,2,2,2,1,3,3,3,2,1,3,1,2,1,1,1,1,2,2,1,1,1,1,1,1,1,1,1,1,2,1,1,1,5,1,2,1,2,1,2,1,1,1,1,1,1,1,1,1,1,1,1,1,1,1,1,1,1,1,6,1,4,6,1,2,5,5,4,5,3,5,3,4,3,3,3,2,2,3,2,2,1,1,1,2,2,1,2,1,2,1,2,3,3,3,3,3,4,6,5,1,5,5,5,3,3,3,5,3,2,1,2,2,4,1,1,3,4,3,2,3,2,4,5,5,2,3,5,5,4,4,3,3,3,1,1,2,1,1,4,2,3,2,2,2,4,2,1,1,5,5,4,4,2,1,2,3,2,2,1,1
Poland,1976,2,1,1,7,1.6,76,4,2,11,17,2,NA,1,2,36.4,36,36.2,52.59309387,19.08940125,77,NA,12:22:56,9,1,1,3,3,4,4,4,4,7,4,5,5,2,1,2,8,3,3,3,2,1,NA,2,handlowa,sportowa,NA,NA,NA,3,4,NA,NA,NA,4,4,4,4,5,4,4,4,4,4,4,4,4,3,2,3,4,4,4,4,2,4,4,3,3,5,3,2,2,2,2,2,2,2,2,3,4,2,4,2,4,2,2,2,2,2,3,2,2,2,2,4,4,2,2,2,4,6,4,2,2,2,4,4,2,2,2,4,2,2,2,2,2,2,2,4,2,4,2,4,4,2,3,5,5,4,5,5,5,5,5,5,5,5,5,5,5,5,5,2,2,2,2,2,3,2,2,2,2,2,3,2,2,2,2,3,4,4,4,4,4,4,3,3,3,4,3,2,2,2,2,3,3,2,3,3,3,3,2,2,3,4,3,3,4,4,4,3,4,4,3,3,3,3,4,2,2,4,2,4,4,2,2,4,2,2,3,3,2,2,3,3,3,3,3,3,2,4,2
Oxford,1976,1,1,2,1,1.8796,68,4,2,0,0,1,15,1,2,35.5,37,36.25,51.75,-1.25,74,2.777777778,08:59:28,5,1,2,1,NA,3,1,5,NA,1,NA,4,4,1,NA,1,NA,1,NA,NA,3,1,NA,1,NA,NA,NA,NA,NA,NA,NA,NA,NA,NA,1,2,1,1,2,1,2,1,2,3,2,2,3,3,2,2,3,4,3,3,3,2,4,1,2,2,4,1,2,2,1,2,1,4,1,1,1,1,1,2,2,1,4,4,1,2,1,3,2,5,5,5,2,5,1,5,2,7,4,5,2,2,2,2,2,2,6,6,2,4,2,2,4,2,5,6,6,4,2,5,6,2,5,5,4,5,5,4,4,5,4,4,2,2,2,2,2,2,2,1,2,2,2,4,2,3,2,3,2,4,3,5,3,3,4,3,2,1,2,2,1,1,2,3,3,4,4,4,1,2,4,3,2,2,2,2,4,1,5,2,1,2,5,5,2,4,4,4,1,2,2,1,2,5,3,2,4,4,4,3,3,4,4,4,1,1,1,2,5,2,3,2,4,2,3,3,4,1,1
Poland,1976,2,1,1,7,1.65,53.8,3,2,9,7,1,10,1,2,36.3,36.3,36.3,52.25,21,56,1,10:08:47,9,1,2,1,NA,2,2,5,1,5,4,6,4,2,4,2,6,3,3,5,1,2,3,1,NA,NA,NA,NA,NA,NA,NA,NA,NA,NA,4,2,4,4,5,3,2,3,4,3,5,4,5,3,3,4,4,4,2,3,3,4,4,4,4,4,3,2,4,2,3,2,3,2,2,2,4,3,3,3,3,1,2,2,2,4,3,2,4,4,5,5,4,3,2,4,1,4,3,5,3,2,5,4,1,2,2,5,1,2,2,2,2,4,2,3,3,3,2,6,6,5,3,4,3,4,3,3,4,4,4,4,3,4,5,3,4,3,3,2,3,2,3,3,2,3,2,3,2,3,2,1,1,4,1,3,3,5,2,2,3,2,1,3,2,5,4,4,3,3,4,3,2,1,2,2,4,3,4,4,3,4,4,3,4,5,3,5,3,2,4,3,1,3,1,2,2,2,2,3,3,2,3,4,3,3,2,2,4,3,4,4,3,2,4,3,3,2,3
METU,1976,2,1,1,7,1.65,67,4,2,NA,NA,2,NA,1,2,35.9,36.8,36.35,NA,NA,55,0,10:15:27,3,2,1,3,8,4,4,1,NA,5,3,3,3,1,NA,1,NA,3,8,8,1,1,NA,1,NA,NA,NA,NA,NA,NA,NA,NA,NA,NA,5,5,5,5,4,5,5,4,5,5,5,5,5,2,3,3,2,3,2,2,3,3,2,3,3,2,3,4,4,3,4,4,2,2,2,3,4,4,4,3,4,2,3,3,3,3,4,6,2,2,2,6,2,2,2,6,2,4,2,2,2,2,6,2,2,2,2,2,2,2,2,2,2,2,2,2,2,2,2,2,2,2,2,5,5,5,5,5,4,4,5,5,1,2,2,2,2,2,2,1,1,1,1,1,2,1,2,2,1,2,2,2,4,4,4,5,7,4,1,3,2,2,2,2,4,5,4,4,2,2,4,4,3,2,2,2,2,3,3,4,2,2,4,4,2,2,2,4,4,3,4,4,2,2,2,2,3,4,5,1,2,1,5,2,4,2,2,4,3,2,2,4,3,4,2,3,3,4,3
Kassel,1976,2,1,1,7,1.7,95,2,2,15,0,2,NA,1,2,36.4,36.6,36.5,51.28779602,9.470504761,73,-4,11:02:02,1,1,1,3,2,4,4,4,1,3,2,4,3,2,1,2,3,3,1,5,2,2,3,2,Handel,0,0,0,0,2,0,0,0,0,3,3,3,4,2,3,3,2,2,3,3,3,3,3,2,4,3,4,3,3,3,3,3,3,3,2,3,1,2,1,2,1,1,1,1,3,3,1,2,1,1,1,1,1,1,2,2,2,2,2,4,2,2,2,2,2,2,6,2,4,2,2,2,2,2,2,2,4,2,2,4,2,2,6,2,6,2,2,2,6,6,2,4,4,4,3,4,4,4,3,4,4,5,5,5,5,5,5,5,3,4,3,3,4,4,4,4,2,3,4,2,2,2,3,2,5,6,5,3,3,3,3,3,4,4,3,2,2,3,3,3,4,3,3,3,4,3,3,3,4,4,4,4,4,4,4,4,4,2,3,3,3,2,4,3,2,2,4,2,4,3,2,2,2,2,2,2,4,4,2,2,4,2,2,3,4,3,3,4
Bamberg,1976,1,3,1,6,1.67,66,4,2,3,0,2,NA,1,2,36.6,36.5,36.55,53.55000305,10,91,4,11:08:22,1,1,1,1,NA,4,2,4,4,3,1,6,4,1,NA,1,NA,3,1,8,2,2,4,2,Sport,NA,NA,NA,NA,1,NA,NA,NA,NA,3,2,3,3,2,3,2,3,2,3,2,3,2,4,4,3,3,3,3,2,3,4,3,4,5,2,4,2,2,2,4,2,3,3,2,4,5,5,4,5,4,2,4,2,4,2,5,5,4,3,5,6,4,2,6,2,2,3,6,4,6,5,2,6,1,2,1,3,1,2,2,5,3,3,1,2,2,2,2,3,3,3,1,5,4,4,4,5,5,4,4,4,3,5,6,4,5,5,5,2,3,2,4,2,3,2,4,2,2,1,2,4,2,1,2,4,4,5,3,4,3,5,3,2,4,5,2,2,4,2,4,4,3,4,2,4,2,2,2,4,4,5,2,2,3,5,5,4,3,4,4,2,1,2,2,2,5,4,4,2,3,4,2,4,4,3,2,5,5,3,3,4,1,3,5,3,4,2,2
Poland,1976,2,2,1,6,1.72,63,3,2,NA,3,2,NA,1,2,36.5,36.8,36.65,52.25,21,68,0,10:03:43,9,1,1,1,NA,4,4,2,2,8,4,8,6,1,NA,2,8,6,1,2,2,1,NA,1,NA,NA,NA,NA,NA,NA,NA,NA,NA,NA,3,3,2,3,2,3,2,3,3,3,3,3,2,3,4,3,4,3,3,3,3,3,3,3,3,3,3,2,2,2,3,2,3,3,2,2,2,1,2,2,2,1,1,1,1,1,3,2,2,2,1,2,2,2,2,2,2,6,2,2,2,1,6,2,2,2,2,3,2,2,2,2,2,2,2,2,4,3,2,5,4,2,2,5,5,4,4,4,3,3,4,4,3,3,2,2,3,3,3,2,3,1,3,2,2,3,2,2,2,3,4,2,1,3,2,5,5,5,3,5,6,6,2,4,4,2,1,3,4,4,3,5,5,3,4,5,3,4,2,4,3,4,3,3,3,4,4,4,4,4,4,4,2,2,2,2,2,3,2,2,3,3,2,2,4,4,2,4,4,4,4,4,2,4,4,4,3,2,2
Poland,1976,2,1,1,7,1.72,63,5,2,5,0,2,NA,1,2,36.6,36.8,36.7,52.25,21,72,2,09:32:15,9,1,4,1,NA,4,2,5,1,4,4,6,6,2,1,2,8,6,4,8,1,1,NA,1,NA,NA,NA,NA,NA,NA,NA,NA,NA,NA,2,4,4,4,5,3,4,4,3,5,3,4,4,2,3,3,4,5,4,3,2,4,4,4,3,4,3,1,3,1,3,4,4,4,1,3,4,3,4,4,4,1,3,2,4,1,4,3,4,1,4,1,6,5,2,4,1,6,1,4,3,1,6,1,1,3,2,5,2,2,2,2,2,4,2,4,2,4,1,7,6,4,2,4,4,4,4,4,4,4,4,4,4,5,5,3,5,2,3,2,1,1,1,1,3,3,1,3,1,2,4,1,1,3,2,4,3,6,6,6,6,1,1,3,4,4,3,4,3,3,3,4,4,1,3,3,3,3,1,3,4,4,3,4,5,5,4,5,4,3,5,3,1,1,2,1,3,4,1,1,1,2,3,5,3,3,1,3,4,4,4,4,1,4,4,3,3,3,1
Bamberg,1977,2,1,1,4,1.58,47,4,1,3,0,1,15,1,2,35.1,35.1,35.1,50.53329468,11.6499939,79,-2,09:37:27,1,1,1,4,4,4,4,4,2,2,2,5,5,1,NA,1,NA,2,2,6,6,2,8,2,Sportverein,NA,NA,NA,NA,4,NA,NA,NA,NA,1,1,5,5,4,4,3,4,4,2,4,4,5,4,2,3,1,1,3,4,4,2,3,3,3,4,4,2,4,2,4,1,1,2,1,4,5,4,3,3,2,1,2,2,2,1,2,6,2,6,3,3,3,3,6,5,6,5,2,6,2,7,5,6,2,7,6,7,3,2,2,2,5,5,6,2,6,7,3,7,6,2,6,4,4,3,4,5,4,5,5,2,3,5,4,2,3,2,3,2,4,5,4,2,2,4,5,4,2,2,2,2,2,4,2,5,7,3,2,5,7,4,4,5,4,3,2,2,4,2,2,5,4,2,3,4,3,2,2,4,2,5,4,5,2,3,4,3,4,3,1,4,2,2,3,4,1,4,3,1,2,4,3,3,2,2,3,3,5,2,2,4,1,3,4,4,2,2,5
Poland,1977,2,1,1,7,1.76,63,4,2,5,0,2,NA,1,2,36.5,36.3,36.4,52.25,21,68,0,09:52:42,9,1,1,2,2,4,4,4,4,8,6,4,4,1,NA,2,8,3,2,2,3,1,NA,2,Ko?o muzyczne,NA,NA,NA,NA,6,NA,NA,NA,NA,3,5,5,4,5,5,5,5,3,5,5,5,4,4,2,2,5,5,5,5,2,3,5,1,4,5,1,1,1,1,1,1,1,1,1,1,1,1,1,1,1,1,1,1,1,1,1,2,1,1,1,1,5,1,1,7,1,7,1,1,1,1,1,1,1,1,1,3,1,1,1,1,1,1,2,1,7,1,1,3,4,1,1,5,5,5,5,5,5,4,5,4,1,3,3,2,2,2,2,2,2,2,2,2,2,4,2,3,2,2,2,2,2,2,2,3,4,5,3,3,2,3,2,5,2,5,1,5,5,5,3,2,2,3,1,1,3,2,3,2,3,4,4,4,4,4,4,5,5,3,5,5,1,1,2,1,1,4,2,4,2,3,4,4,3,2,4,4,4,4,4,3,2,5,4,3,4,3,3
Poland,1977,1,1,1,7,1.87,105,3,2,3,0,2,NA,1,2,36.3,36.5,36.4,52.41670227,16.96670532,74,-5,09:59:24,9,1,1,3,3,4,4,2,2,8,6,6,5,2,8,2,8,6,4,7,1,1,NA,2,1,2,3,4,5,7,5,4,7,4,4,3,3,5,4,4,2,3,2,5,4,3,4,3,4,3,3,4,2,3,2,4,4,3,4,4,3,3,1,1,3,2,2,2,2,2,3,2,2,2,1,1,1,1,1,2,2,2,1,1,1,7,3,2,2,1,2,6,6,2,2,1,6,2,1,2,1,2,2,1,1,1,1,2,1,1,4,2,1,4,4,5,3,4,4,5,5,5,5,5,5,5,2,3,3,2,2,2,2,1,2,2,1,2,3,2,1,2,1,2,3,2,1,2,1,5,7,6,4,4,2,4,3,3,2,4,2,2,4,3,3,4,4,4,4,4,2,4,2,2,4,4,3,4,3,5,5,5,4,4,5,4,2,2,2,2,3,2,3,2,2,2,3,2,4,2,3,4,4,4,4,4,2,4,4,4,4,2,4
Serbia,1977,2,1,1,5,1.67,57,3,2,0,0,2,NA,1,2,36.9,36.9,36.9,44.81860352,20.46809387,53,6,10:35:35,6,1,1,1,NA,4,4,2,1,3,3,4,2,1,NA,1,NA,3,1,8,1,1,NA,1,NA,NA,NA,NA,NA,NA,NA,NA,NA,NA,4,4,3,5,5,4,4,2,4,4,3,5,4,3,3,4,2,2,2,3,3,2,2,3,4,2,2,4,4,3,3,3,2,4,2,4,4,4,4,4,2,3,3,4,4,3,3,1,1,1,1,1,2,2,1,1,1,NA,1,1,1,1,1,1,1,1,1,7,1,1,2,1,5,NA,1,1,NA,1,4,7,6,NA,1,5,5,5,5,5,5,5,5,5,5,5,3,3,5,5,5,2,2,1,2,2,1,2,2,2,1,2,4,2,2,3,2,4,4,3,1,4,4,4,4,2,4,4,3,5,2,2,5,4,2,2,2,2,4,2,4,4,3,4,4,4,4,4,1,1,4,2,2,2,2,3,2,2,4,4,4,4,2,1,2,4,3,2,1,4,4,3,3,4,2,3,5,3,4,4,2
Portugal,1978,1,1,1,5,1.71,73,3,2,0,0,1,15,1,2,36.1,35.8,35.95,38.80099487,-9.378295898,75,11,10:47:22,8,1,1,2,3,2,2,2,1,4,4,3,3,1,NA,1,NA,3,8,8,5,1,NA,2,politica,politica,sindical,NA,NA,7,7,7,NA,NA,4,2,2,3,2,5,2,2,2,1,5,3,2,2,3,3,3,2,1,2,2,2,2,3,4,4,2,4,4,4,4,3,2,2,3,4,2,2,2,2,2,2,2,2,2,4,2,2,2,2,3,1,6,2,2,3,2,1,1,2,2,1,2,2,2,2,1,7,1,2,2,2,2,1,1,1,7,1,1,1,6,1,5,3,4,4,5,5,2,2,3,3,2,2,2,1,2,2,1,2,5,1,1,2,2,2,2,2,2,1,3,1,2,3,3,4,3,6,2,2,2,2,2,4,4,3,2,2,2,2,5,5,1,2,4,4,3,4,4,3,4,3,3,3,3,2,2,2,1,4,4,2,3,2,4,1,2,5,4,2,2,2,2,3,2,3,1,4,4,5,4,4,5,5,4,3,3,2,1
Serbia,1978,1,1,1,6,1.78,99,4,2,21,0,1,5,1,2,35.9,36.1,36,44.81860352,20.46809387,95,11,11:26:08,6,1,1,2,2,4,4,3,3,6,4,7,7,1,NA,1,NA,3,1,8,4,2,6,1,NA,NA,NA,NA,NA,NA,NA,NA,NA,NA,4,4,5,4,4,3,4,3,4,4,3,2,4,2,3,3,2,2,2,2,3,2,2,3,4,2,3,3,4,2,4,1,2,5,1,4,2,4,1,3,1,1,2,2,3,1,1,2,1,2,2,4,2,2,2,NA,1,NA,1,5,2,1,1,1,1,5,NA,8,NA,3,2,2,NA,NA,1,NA,NA,1,4,6,7,NA,NA,5,5,4,5,5,3,4,3,3,4,5,4,4,6,6,6,3,3,1,3,4,4,4,2,4,3,2,3,1,1,2,1,3,5,5,1,2,2,5,4,4,4,3,1,2,3,4,3,5,3,5,5,3,4,4,3,4,5,5,3,3,3,3,1,2,4,4,4,3,3,4,1,4,3,4,4,3,4,3,4,1,2,2,2,4,3,2,2,3,4,2,2,2,3,3,3
Chile,1978,2,1,2,6,1.51,49,3,2,1,0,1,NA,1,2,36.1,36.3,36.2,33.44999695,-70.66670227,85,14,10:39:14,2,1,3,2,2,2,2,5,NA,8,5,5,3,2,1,2,5,5,8,8,1,1,NA,1,NA,NA,NA,NA,NA,NA,NA,NA,NA,NA,3,3,4,5,2,4,2,3,5,2,3,4,5,3,4,4,4,2,3,4,5,2,4,3,4,4,2,4,4,1,1,1,1,2,1,1,5,5,1,2,2,1,1,1,1,1,1,4,4,4,6,4,4,4,2,4,4,5,6,7,2,1,3,7,4,6,4,7,4,5,5,5,4,4,4,4,4,4,5,7,7,4,4,4,5,5,5,5,3,3,3,3,1,3,2,2,2,2,2,1,2,1,2,5,1,1,2,2,1,1,2,2,1,1,1,5,6,6,6,6,1,1,5,2,1,5,5,5,3,1,5,1,1,1,1,1,5,1,1,3,4,2,4,3,4,3,3,3,4,4,3,3,3,1,3,5,5,3,4,1,2,3,2,5,2,1,1,1,3,1,1,4,3,3,3,4,5,1,1
Portugal,1978,2,1,2,5,1.59,52,4,2,0,0,2,NA,1,2,36,36.7,36.35,38.71670532,-9.133300781,79,13,11:57:52,8,1,2,1,NA,4,2,5,1,8,8,8,8,1,NA,2,8,2,1,8,8,1,NA,2,Ginasio,Aulas,Social,NA,NA,7,7,7,NA,NA,4,4,4,3,4,5,2,4,4,3,4,4,4,4,3,2,2,2,2,2,2,3,3,3,3,2,1,2,2,2,2,2,2,2,2,2,4,2,4,2,4,2,2,2,3,2,2,2,2,2,2,3,2,2,2,1,2,5,2,2,2,2,3,2,2,5,1,7,1,2,2,2,1,1,2,2,6,6,2,6,6,1,5,3,4,4,4,4,4,4,4,4,1,2,1,1,1,1,1,1,1,1,2,1,1,1,1,5,1,2,3,1,3,2,2,4,6,6,4,4,4,4,1,3,3,5,4,2,3,5,2,2,4,3,3,4,3,5,3,4,4,4,4,3,3,2,2,2,4,2,2,3,2,2,2,4,2,3,1,3,3,3,3,3,3,2,2,3,2,2,2,4,3,3,2,3,3,4,1
Poland,1978,1,1,1,7,1.91,125,3,2,2,1,2,NA,1,2,36.4,36.3,36.35,52.25,21,90,1,11:05:35,9,1,1,3,3,1,1,2,2,5,3,3,1,2,4,2,8,6,8,8,3,2,3,1,NA,NA,NA,NA,NA,NA,NA,NA,NA,NA,3,5,2,2,4,5,1,2,2,5,3,4,2,3,3,4,4,4,5,4,3,4,3,3,4,4,3,2,2,3,4,1,1,1,2,2,3,1,2,2,1,1,1,1,1,1,1,5,2,2,2,5,5,2,2,3,1,6,5,2,2,2,5,2,2,2,2,2,2,2,2,2,2,5,2,2,3,2,2,6,5,2,2,5,5,5,5,5,5,4,5,4,5,5,4,5,6,6,5,2,2,1,2,2,1,2,1,1,2,2,3,2,2,2,1,5,7,5,2,3,1,2,2,3,4,4,4,2,2,2,2,4,2,2,2,2,2,2,2,4,2,4,4,4,4,4,4,4,3,4,5,3,1,3,1,1,1,4,1,4,2,3,3,5,2,1,1,4,3,2,2,2,2,4,4,4,3,2,2
VCU,1978,1,3,2,7,1.9304,140.9090909,2,1,6,0,2,NA,1,2,36.33333333,36.5,36.41666667,37.73379517,-77.88809967,91,14.44444444,11:24:35,5,1,4,1,NA,4,4,5,NA,3,3,8,8,1,NA,2,8,3,1,6,1,2,8,2,Alcoholics Anonymous,IATSE Local 285,NA,NA,NA,7,7,NA,NA,NA,3,1,3,2,3,3,2,3,2,3,4,5,3,2,3,4,2,2,2,2,2,2,3,3,4,2,2,3,4,3,4,4,2,3,3,4,4,4,4,4,4,1,1,1,1,3,4,2,2,3,2,2,3,2,3,3,3,2,2,3,3,3,2,5,2,1,2,2,1,2,1,2,2,2,2,1,2,2,1,2,2,1,2,5,4,5,4,4,5,5,5,5,4,4,4,4,4,2,2,2,3,1,2,2,2,3,2,1,1,1,3,3,1,2,2,5,5,6,4,4,4,3,5,5,5,3,1,1,4,3,1,5,5,3,4,5,2,5,2,4,2,2,5,5,4,5,5,5,4,4,5,5,1,2,2,4,4,5,4,4,1,4,3,4,2,4,5,3,4,3,5,3,4,3,4,3,2,2,4
METU,1978,2,1,1,6,1.63,50,2,2,NA,NA,1,40,1,2,36.8,36.1,36.45,39.92300415,32.83779907,67,6,10:26:32,3,2,1,1,NA,2,2,4,1,5,5,4,4,1,NA,2,1,3,3,3,1,1,NA,1,NA,NA,NA,NA,NA,NA,NA,NA,NA,NA,3,2,3,2,3,3,1,1,3,1,4,2,3,3,3,4,3,3,2,3,3,3,2,4,4,4,2,4,2,4,4,3,5,2,2,2,4,3,4,3,4,2,2,2,3,2,4,6,5,6,6,5,6,1,5,5,5,6,6,4,2,2,7,2,2,1,1,5,3,3,2,2,3,2,1,2,2,2,2,6,5,1,3,5,4,4,3,2,4,4,4,3,3,4,3,4,4,3,3,2,2,3,3,2,3,3,4,3,3,2,2,2,3,3,2,5,6,6,6,6,4,4,1,1,4,4,3,4,2,2,5,5,5,1,4,5,5,3,4,4,4,3,5,5,3,4,4,3,3,3,3,3,1,1,2,4,4,4,1,4,2,4,4,4,3,3,2,3,3,4,4,4,2,3,4,3,3,1,4
Poland,1978,1,1,1,4,1.83,92,5,2,14,0,2,NA,1,2,36.5,36.5,36.5,52.25,21,83,1,10:37:59,9,1,1,1,NA,3,3,3,3,3,1,6,3,1,NA,2,8,3,1,8,3,1,NA,2,sport,NA,NA,NA,NA,5,NA,NA,NA,NA,3,4,3,5,4,4,2,4,3,4,5,4,4,1,3,3,4,5,4,4,2,4,4,3,3,4,1,2,2,1,3,3,1,1,1,1,3,2,3,3,3,1,1,1,2,1,2,1,1,1,2,4,1,1,2,1,1,7,3,1,1,2,5,2,2,2,1,5,1,1,1,2,1,2,1,1,3,2,1,6,4,2,2,4,5,4,5,5,5,3,4,4,6,3,2,3,4,3,3,2,2,1,2,1,2,3,2,2,1,2,3,2,1,3,1,4,5,5,2,2,5,5,2,3,3,4,3,3,3,4,2,4,3,4,2,3,4,3,3,4,5,5,3,2,5,4,4,4,3,4,4,4,1,2,2,2,1,3,3,2,2,3,2,1,2,2,2,3,2,4,3,4,3,3,5,4,3,3,4
Zurich,1978,2,1,1,6,1.73,69,5,2,27,0,2,NA,1,2,36.5,36.6,36.55,47.56030273,8.903594971,59,2,10:55:02,1,1,1,3,3,4,1,4,1,1,NA,5,3,1,NA,1,NA,1,NA,NA,3,1,NA,2,kynologischer Verein,unihockey club,NA,NA,NA,6,2,NA,NA,NA,4,3,3,1,4,5,2,5,2,4,4,3,1,3,3,3,2,2,2,2,3,2,2,4,3,2,3,2,4,2,4,4,2,3,2,4,4,2,4,4,4,2,2,2,2,2,4,2,3,3,1,1,2,2,1,3,2,6,1,5,1,1,2,1,1,1,1,5,1,1,1,1,2,2,1,1,1,1,1,5,5,2,2,4,5,4,5,5,3,2,4,4,3,3,2,2,1,2,2,2,2,1,2,3,2,4,2,2,2,4,2,2,2,3,1,5,8,7,4,7,6,3,1,2,2,5,4,2,1,2,3,2,2,1,2,2,4,2,2,4,2,5,5,5,4,4,4,3,2,3,4,2,2,4,4,4,1,4,3,2,2,2,2,2,4,4,4,4,4,5,4,4,2,3,4,2,2,2,2
Poland,1978,2,1,1,7,1.7,55,5,2,0,10,2,NA,1,2,36.3,36.9,36.6,54.36079407,18.65829468,81,1,11:15:02,9,1,1,3,3,2,2,4,4,5,2,8,8,2,1,2,8,6,8,7,1,2,8,1,NA,NA,NA,NA,NA,NA,NA,NA,NA,NA,4,4,3,4,4,4,3,4,3,2,4,4,4,2,3,3,4,5,4,5,2,4,3,2,3,5,2,1,2,1,1,3,1,1,1,2,2,2,1,2,2,1,1,1,2,1,1,2,1,1,1,1,2,1,2,6,1,7,1,2,1,1,3,2,1,2,2,6,2,2,4,4,3,4,2,2,6,2,4,6,7,2,2,5,5,4,5,5,3,3,3,3,1,1,1,1,1,2,1,1,1,1,1,2,2,1,2,2,2,2,3,2,3,3,4,5,4,4,1,2,1,1,1,2,2,4,4,5,1,1,4,2,2,2,2,2,4,1,4,4,1,4,3,4,4,2,1,5,4,4,4,3,2,3,2,2,3,5,3,2,2,2,4,4,2,2,2,1,4,3,3,4,4,2,4,2,2,5,1
Zurich,1978,2,1,1,6,1.75,67,2,2,2,2,2,NA,1,2,37,36.7,36.85,47,8,NA,NA,09:46:41,1,1,1,1,NA,4,4,2,2,5,1,3,1,1,NA,2,1,3,1,8,1,1,NA,1,NA,NA,NA,NA,NA,NA,NA,NA,NA,NA,3,3,4,4,3,4,2,4,3,3,3,3,4,3,3,4,2,3,3,3,4,3,3,3,2,3,2,2,4,3,3,3,3,3,3,3,3,4,3,3,2,1,2,2,2,1,3,3,2,4,5,4,4,4,4,4,4,5,5,4,4,4,4,4,2,4,3,1,4,4,3,4,4,4,4,4,4,4,3,6,6,3,5,4,3,4,4,3,3,3,3,2,3,3,6,5,4,4,4,3,3,4,3,3,4,3,3,3,3,4,3,3,2,3,2,4,5,6,5,5,2,3,4,3,1,4,3,4,3,3,4,3,2,1,2,3,4,2,3,2,2,3,4,4,3,3,3,3,2,3,3,2,2,3,3,2,3,4,3,2,3,3,4,3,3,2,2,3,3,2,2,3,3,2,3,3,3,3,3
Kassel,1979,1,1,1,2,1.63,71,3,2,0,0,2,NA,1,2,34.6,36,35.3,50.07940674,8.215698242,68,4,12:00:43,1,1,1,3,3,4,2,4,4,6,2,4,4,1,NA,1,NA,1,NA,NA,3,1,NA,1,NA,NA,NA,NA,NA,NA,NA,NA,NA,NA,3,2,3,2,4,3,2,2,3,3,4,3,3,2,3,3,2,3,2,3,3,3,2,3,3,2,3,3,3,2,4,3,1,1,4,4,3,2,3,3,2,1,1,1,1,1,3,2,1,2,4,5,4,1,4,7,2,7,2,3,4,4,5,4,2,2,2,2,3,2,5,7,3,4,2,3,2,4,5,4,5,4,4,4,4,4,4,4,3,2,1,3,3,4,3,4,4,4,4,4,2,2,2,3,3,3,3,2,3,3,2,2,2,2,1,5,6,5,6,4,5,5,2,2,4,4,4,3,5,4,3,2,4,3,2,4,4,2,2,4,2,4,3,4,4,3,4,3,3,3,4,4,2,2,2,2,2,4,3,2,3,2,2,4,3,3,4,4,4,3,2,3,2,2,2,2,2,3,2
Portugal,1979,1,1,1,6,1.68,64,3,1,2,0,2,NA,1,2,35.7,35.7,35.7,38.71670532,-9.133300781,79,13,10:45:22,8,1,1,2,2,2,2,4,4,2,2,2,2,1,NA,1,NA,3,4,4,1,1,NA,1,NA,NA,NA,NA,NA,NA,NA,NA,NA,NA,4,3,5,5,3,4,4,4,4,4,4,4,4,4,4,4,2,2,2,2,3,1,2,4,4,2,3,3,4,3,4,3,2,3,2,4,5,4,5,4,5,2,3,4,4,2,5,6,2,3,6,6,3,2,6,3,5,5,2,2,2,1,6,6,1,6,6,3,2,3,2,2,2,1,5,2,5,2,1,5,5,2,2,5,5,5,5,5,5,4,5,5,4,6,7,5,5,5,5,2,5,2,3,2,5,5,2,5,1,5,3,3,1,3,1,3,3,5,2,2,2,2,4,3,4,5,3,2,2,2,4,3,4,2,3,4,4,3,2,3,4,4,3,3,3,1,1,1,3,2,3,3,2,2,2,1,3,4,3,1,2,3,3,3,4,2,3,4,3,3,3,3,3,3,2,3,3,3,3
Oxford,1979,2,1,1,7,1.5,55,5,2,1,0,2,NA,1,2,35.6,35.8,35.7,51.75,-1.25,74,2.777777778,08:49:38,5,1,1,3,3,2,2,3,3,3,3,5,5,1,NA,1,NA,3,8,8,2,1,NA,1,NA,NA,NA,NA,NA,NA,NA,NA,NA,NA,4,2,5,5,5,4,5,4,4,5,5,4,5,3,3,3,3,2,1,1,2,3,1,3,5,1,3,4,5,4,5,4,4,5,4,2,5,5,5,5,4,5,5,5,5,5,5,5,4,3,5,4,2,7,5,6,1,7,1,1,1,4,1,1,1,1,1,1,1,1,1,1,1,1,1,1,1,1,1,1,2,1,1,5,5,5,5,5,5,5,5,5,2,4,4,3,3,3,3,1,2,1,2,2,1,1,3,2,1,1,2,2,2,4,1,5,8,5,2,2,2,2,4,4,2,5,4,2,2,2,2,4,1,1,4,4,1,2,4,4,2,4,4,4,4,4,4,4,2,3,4,3,1,1,1,1,5,5,4,2,2,4,4,2,4,4,4,5,2,4,4,4,4,4,4,4,4,4,2
METU,1979,1,1,1,5,1.75,66,3,2,2,5,1,2,1,2,35.6,36.2,35.9,39.91169739,32.84030151,64,2,11:16:51,3,2,1,1,NA,4,4,4,2,3,3,1,1,1,NA,1,NA,3,8,8,1,2,4,2,ara?t?rma grubu,siyasi parti,i? yeri,NA,NA,10,6,5,NA,NA,2,4,4,3,4,4,1,3,4,2,3,3,3,2,2,4,3,3,4,3,4,3,4,3,4,4,3,1,2,1,1,4,1,1,1,1,2,1,2,3,1,1,1,1,2,1,1,2,2,2,1,5,5,2,1,2,4,2,2,2,1,4,6,2,1,2,3,2,1,4,2,2,1,1,3,2,2,2,5,1,2,1,2,4,4,3,4,4,3,3,2,1,6,4,5,4,5,5,4,3,4,1,2,2,2,4,4,3,2,1,2,1,4,5,3,4,5,4,1,2,3,5,1,4,4,5,5,4,3,3,4,1,2,2,1,2,4,1,4,3,3,4,2,1,5,4,4,4,3,3,3,2,2,3,3,2,2,2,3,3,2,1,1,5,1,4,2,4,3,5,5,3,3,4,3,2,3,2,4
Kassel,1979,2,1,1,7,1.6,57,4,2,0,0,2,NA,1,2,35.9,36.3,36.1,51.31669617,9.5,54,5,10:36:48,1,1,1,2,8,4,4,4,2,2,1,3,3,1,NA,2,4,1,NA,NA,2,1,NA,1,NA,NA,NA,NA,NA,NA,NA,NA,NA,NA,4,3,5,4,4,4,3,2,4,4,3,4,4,2,2,3,2,2,2,2,3,2,2,3,4,2,2,3,3,3,3,3,3,3,3,3,3,4,3,3,3,3,3,3,2,3,3,1,1,1,1,1,1,1,1,7,1,1,2,1,1,1,1,2,1,1,1,4,3,2,1,3,2,2,2,2,2,2,2,7,7,2,1,4,4,4,5,4,3,4,5,5,4,1,1,3,3,3,3,2,1,1,2,2,2,1,2,3,1,2,2,2,2,3,2,5,7,5,3,4,1,1,1,3,1,5,5,5,2,2,4,1,2,1,1,2,3,1,4,2,2,3,4,4,3,3,4,3,3,3,3,3,1,1,1,1,5,4,3,2,2,2,4,5,2,1,1,5,5,3,2,4,3,2,4,2,3,2,1
VCU,1979,1,1,1,7,1.8288,88.63636364,2,2,0,0,2,NA,1,2,36.05555556,36.27777778,36.16666667,37.55380249,-77.46029663,91,14.44444444,10:44:28,5,1,4,1,NA,4,4,5,NA,1,NA,7,3,1,NA,2,8,3,1,8,1,2,8,2,Special Olympics,Italian Club,Military Student Veterans Assoc,NA,NA,7,7,7,NA,NA,3,4,4,3,3,2,2,4,4,4,4,4,3,4,3,2,3,3,2,2,2,2,2,2,3,3,2,4,4,2,3,2,2,2,2,3,3,3,3,3,3,3,1,3,3,3,3,5,2,2,2,3,3,5,2,2,2,2,1,2,2,2,2,4,2,2,6,2,2,2,1,2,2,2,2,2,3,2,2,2,5,2,2,4,4,4,4,4,4,3,4,4,6,5,3,4,3,3,4,2,2,3,2,2,2,2,2,2,2,2,2,2,3,3,2,2,2,1,1,1,1,1,4,2,4,4,4,2,2,2,4,4,2,2,3,2,2,4,2,3,3,3,4,5,4,4,2,4,2,2,2,2,2,2,2,4,4,5,5,4,2,3,4,2,2,2,4,3,4,2,3,1,2,4,3,2,3,2,2
Serbia,1979,2,1,1,7,1.73,53,5,2,0,0,1,0,1,2,36.2,36.3,36.25,44.81860352,20.46809387,95,11,10:23:35,6,1,1,3,3,4,4,4,4,3,1,4,4,1,NA,1,NA,3,1,6,3,1,NA,1,NA,NA,NA,NA,NA,NA,NA,NA,NA,NA,4,3,3,5,4,3,2,2,4,4,4,5,3,3,3,3,3,3,3,2,3,2,2,3,4,2,2,4,2,2,2,1,1,2,1,4,4,4,2,4,2,1,1,2,2,1,3,2,1,1,1,1,1,1,1,1,1,1,1,1,1,1,1,2,2,1,1,4,1,1,1,1,NA,1,1,1,NA,NA,1,6,6,NA,NA,4,4,4,4,4,2,3,4,4,3,2,2,2,2,2,2,1,2,1,2,4,1,2,2,1,2,2,2,2,1,3,2,4,5,4,1,3,3,3,2,4,3,4,2,2,4,2,2,5,2,3,1,2,3,4,3,3,3,5,3,3,3,3,1,2,1,4,4,2,3,2,2,1,2,4,4,3,2,2,3,4,3,1,2,4,2,2,2,2,5,3,3,3,1,4,2
Poland,1979,2,1,1,7,1.62,54,2,2,13,3,2,NA,1,2,36.6,36.9,36.75,52.25,21,88,0,11:42:31,9,1,1,2,2,4,4,4,1,3,1,8,8,2,1,2,5,6,1,8,2,1,NA,1,NA,NA,NA,NA,NA,NA,NA,NA,NA,NA,2,2,1,4,2,2,1,2,4,3,2,4,1,2,4,4,3,3,2,3,5,1,2,3,5,4,5,5,5,4,4,4,3,3,5,4,5,5,5,5,5,3,4,4,4,2,5,1,2,1,2,2,5,2,1,2,5,6,2,2,2,1,6,2,2,7,6,2,6,6,7,2,3,1,6,7,6,7,2,7,6,2,6,2,4,4,4,3,3,2,4,4,7,7,7,6,7,7,6,2,2,5,1,2,2,2,2,2,2,2,4,2,1,2,1,5,7,7,8,8,8,5,1,1,2,5,5,4,3,1,5,1,1,1,1,1,5,1,1,4,4,4,4,2,4,4,4,3,2,4,2,3,4,2,4,2,3,4,2,4,3,2,2,5,2,4,2,5,5,5,2,2,4,4,4,4,5,1,5
Poland,1979,2,1,1,7,1.63,52,2,2,15,21,2,NA,1,2,36.7,37,36.85,54.36079407,18.65829468,88,0,10:04:41,9,1,1,2,2,4,4,4,4,5,3,5,5,2,8,2,8,6,1,8,3,2,4,1,NA,NA,NA,NA,NA,NA,NA,NA,NA,NA,5,3,5,5,5,4,5,4,4,4,5,5,5,2,5,4,4,4,4,3,3,4,3,5,5,3,4,1,1,1,1,4,3,1,1,1,4,1,4,1,3,1,1,1,1,1,2,7,1,1,1,2,6,1,1,5,5,7,1,5,1,1,5,2,1,5,2,3,2,2,2,1,3,1,2,2,2,1,2,5,5,1,2,4,4,3,5,5,3,4,3,3,3,2,2,4,3,3,2,2,1,3,1,2,2,2,3,2,2,1,2,2,3,3,4,5,7,6,3,3,4,1,5,3,2,5,3,5,3,2,5,2,1,2,2,3,4,1,2,2,2,3,4,4,3,2,5,5,2,2,2,4,1,3,4,4,1,5,2,1,2,3,2,2,3,2,1,2,5,4,2,1,3,5,4,4,4,5,3
Oslo,1980,1,1,1,7,1.89,93,5,2,0,0,2,NA,1,2,34.1,36.2,35.15,59.91670227,10.75,75,0,09:41:53,4,1,1,3,3,4,4,4,4,5,5,6,2,1,NA,1,NA,3,1,6,4,1,NA,1,NA,NA,NA,NA,NA,NA,NA,NA,NA,NA,2,4,3,4,3,3,2,3,2,3,3,3,4,3,2,3,2,1,1,2,4,2,3,2,4,4,2,3,3,3,4,2,2,4,2,4,4,4,3,3,2,1,1,2,4,3,3,3,2,1,2,4,5,2,3,2,1,3,6,3,5,2,3,4,1,4,4,2,2,2,2,1,2,5,4,2,2,3,2,3,2,3,3,5,5,5,5,5,4,5,5,5,3,2,2,2,2,2,3,2,2,1,3,2,2,2,2,1,3,2,2,1,3,4,3,5,6,4,3,5,2,5,2,4,4,4,2,3,3,4,2,4,4,2,3,4,3,4,4,3,2,3,4,2,1,4,4,5,4,3,3,4,1,2,1,1,4,4,4,3,2,2,3,2,4,3,2,4,2,4,4,4,4,4,4,4,3,4,3
Poland,1980,2,1,1,4,1.62,57,4,2,5,0,2,NA,1,2,35.9,36.2,36.05,52.25,21,83,0,10:04:45,9,1,1,2,2,2,2,4,1,8,4,4,3,2,3,2,6,6,1,3,1,1,NA,2,studencka,NA,NA,NA,NA,4,NA,NA,NA,NA,3,2,3,2,4,5,2,4,2,3,3,2,4,3,4,4,4,4,4,4,3,3,3,3,3,3,4,3,2,4,3,3,2,2,2,2,5,4,4,4,4,1,1,1,1,1,4,5,5,5,5,5,2,5,3,6,5,3,2,2,1,5,7,2,1,2,2,6,2,2,2,1,2,2,3,3,3,3,1,6,2,3,4,4,4,4,4,4,5,3,4,4,5,5,5,5,5,4,4,3,1,1,2,2,3,2,1,2,1,2,4,2,2,3,2,4,5,6,6,5,4,1,1,4,3,4,1,5,1,2,5,5,3,1,1,3,1,2,3,3,4,4,4,4,4,5,2,5,5,3,4,4,1,1,3,1,5,5,4,1,1,2,5,4,3,2,1,3,4,4,2,4,2,4,2,3,4,1,4
Oxford,1980,1,1,2,1,1.7526,100,1,2,9,0,2,NA,1,2,35.5,36.7,36.1,51.75,-1.25,88,-2.222222222,09:08:43,5,1,2,1,NA,4,4,5,NA,8,4,4,4,2,1,1,NA,2,1,2,1,1,NA,1,NA,NA,NA,NA,NA,NA,NA,NA,NA,NA,3,3,1,4,2,2,1,2,2,3,5,1,2,4,3,3,2,2,3,3,4,2,3,3,5,3,4,2,4,1,2,1,1,3,1,4,3,3,3,2,3,1,2,2,2,1,3,7,7,7,7,7,7,7,7,7,7,7,7,7,6,7,7,6,4,5,6,6,4,6,2,1,7,4,4,3,1,4,1,4,4,4,6,5,5,5,5,5,5,5,5,5,1,1,1,1,1,1,1,3,3,3,4,2,4,4,3,1,3,1,1,1,1,1,2,2,2,2,2,2,2,2,4,4,5,5,2,3,3,3,3,4,4,3,4,4,4,4,3,4,1,5,5,5,5,5,5,5,5,3,3,4,3,1,2,3,1,3,3,4,4,3,5,4,2,1,2,4,3,5,5,3,4,5,3,5,3,1,3
METU,1980,2,1,1,4,1.6,53,3,2,NA,NA,1,4,1,2,36,36.4,36.2,39.91149902,32.85800171,43,0,11:09:09,3,2,1,1,NA,4,4,4,1,8,6,4,4,1,NA,2,2,3,1,8,1,1,NA,2,Parti,Dernek,NA,NA,NA,7,7,NA,NA,NA,2,2,1,2,1,3,1,1,3,2,4,1,3,3,4,4,2,2,2,3,2,2,1,4,4,3,2,4,4,4,3,3,1,2,1,4,4,2,3,4,3,2,1,2,3,1,3,5,3,2,2,7,5,1,3,2,5,2,5,6,5,2,2,6,1,2,2,2,2,1,2,4,2,2,2,2,3,2,3,2,2,2,5,5,4,5,4,2,5,5,5,5,6,5,4,4,4,3,3,3,2,5,3,2,2,3,2,1,3,3,2,1,2,2,2,4,4,7,2,3,2,1,1,3,1,5,4,5,3,3,5,4,2,1,1,1,5,1,5,4,3,3,4,3,5,5,3,4,4,4,4,4,2,3,3,4,3,5,3,5,4,2,2,4,2,4,1,4,1,5,4,4,2,4,4,3,3,5,1
METU,1980,2,1,2,7,1.64,57,3,2,NA,NA,2,NA,1,2,36.3,36.2,36.25,38.77349854,30.57650757,39,12,11:20:04,3,2,2,1,NA,4,4,5,NA,2,3,5,4,1,NA,1,NA,3,1,3,1,2,7,2,NA,NA,NA,NA,NA,NA,NA,NA,NA,NA,2,2,5,3,3,4,2,2,4,1,4,2,2,4,4,4,2,2,1,2,3,3,2,4,4,2,3,4,3,2,2,4,2,3,4,4,4,4,4,2,4,2,2,4,4,4,4,5,5,4,5,5,5,5,5,5,1,5,4,5,6,3,7,3,2,1,3,3,1,1,3,3,3,3,1,2,3,1,3,3,3,1,3,4,4,4,4,4,2,2,4,2,3,4,5,4,5,5,4,2,2,2,2,1,1,2,1,1,2,2,2,2,2,2,2,5,6,5,1,5,2,3,1,1,2,5,4,4,4,2,5,4,4,2,2,4,5,2,4,3,5,4,5,5,4,4,4,4,2,4,4,4,2,3,4,4,5,2,2,4,4,4,4,4,4,2,5,4,2,4,4,2,2,3,4,4,3,4,2
Kassel,1980,1,1,1,5,1.7,79,2,2,0,0,1,1,1,2,36.4,36.4,36.4,50.98330688,9.716705322,NA,NA,10:39:48,1,1,5,3,3,4,4,2,1,4,4,3,3,2,1,2,2,3,5,8,5,1,NA,1,NA,NA,NA,NA,NA,NA,NA,NA,NA,NA,3,2,4,3,2,3,2,3,3,3,3,3,4,3,3,4,2,3,3,3,3,3,3,3,4,2,3,3,4,2,4,1,1,2,2,2,1,3,1,2,1,2,1,2,1,2,1,3,2,2,2,2,2,2,2,4,2,6,2,4,6,3,5,2,1,2,4,6,4,7,7,6,1,3,3,3,1,2,1,6,6,1,3,5,4,4,4,5,5,5,5,4,5,5,5,5,4,4,4,2,3,2,4,2,2,2,2,3,2,2,2,3,2,3,1,4,3,5,3,3,3,3,3,3,2,5,3,2,2,2,2,4,3,3,2,3,2,2,3,4,3,4,3,4,4,3,3,3,2,3,3,3,2,3,2,3,2,2,4,2,2,3,3,1,3,3,3,3,4,3,3,3,3,2,3,2,3,4,2
Portugal,1980,1,1,1,6,1.82,85,4,2,13,0,2,NA,1,2,36.4,36.5,36.45,38.71670532,-9.133300781,73,13,11:39:53,8,1,1,1,NA,4,1,4,4,4,1,7,1,1,NA,1,NA,3,1,8,1,1,NA,2,COPELABS,NA,NA,NA,NA,8,NA,NA,NA,NA,4,5,4,3,4,2,5,4,5,5,5,5,5,2,2,3,2,2,2,2,2,2,2,2,4,2,2,1,2,1,3,1,1,2,1,1,4,1,2,1,3,1,1,1,2,1,1,1,1,1,1,3,7,1,1,1,1,2,1,1,3,1,1,3,1,1,1,1,4,1,1,1,4,4,1,1,4,4,1,2,2,4,4,5,5,5,5,5,4,4,4,1,3,7,7,7,5,4,4,1,1,1,2,1,1,1,1,5,1,1,2,5,3,3,1,5,3,5,2,3,2,2,4,2,5,2,3,4,4,3,5,3,2,3,4,4,4,5,3,3,4,4,3,4,4,1,1,1,1,3,3,3,4,2,1,1,1,5,4,4,2,2,2,4,3,2,2,3,4,4,4,4,2,3,3,3,3,4,3
Poland,1980,2,1,1,7,1.72,67,3,2,7,4,2,NA,1,2,36.41,36.57,36.49,52.32780457,16.91090393,73,3,10:53:40,9,1,1,2,2,4,2,2,2,4,1,4,3,1,NA,2,8,2,2,1,2,2,1,1,NA,NA,NA,NA,NA,NA,NA,NA,NA,NA,3,4,4,4,5,4,2,3,3,5,5,3,5,3,3,3,5,4,5,4,2,3,4,3,3,4,3,1,1,1,4,3,1,1,1,1,4,4,4,1,1,1,1,1,1,1,1,5,3,2,1,4,5,1,2,2,1,7,1,1,1,2,6,5,1,2,1,2,1,4,1,1,2,2,1,1,4,2,1,4,4,2,2,4,5,5,5,5,5,5,5,5,5,4,4,4,4,5,5,2,2,1,2,1,1,2,2,2,1,2,2,1,1,1,2,3,4,5,2,2,3,4,2,5,2,4,1,2,2,4,2,5,4,2,4,5,4,4,4,5,1,5,4,5,4,5,2,4,2,3,5,1,1,2,1,1,2,2,2,1,3,2,2,4,4,2,2,4,4,5,5,4,2,4,5,5,3,1,4
Serbia,1980,1,1,2,7,1.73,63,3,1,1,0,2,NA,1,2,36.7,36.7,36.7,44.81860352,20.46809387,65,8,09:43:49,6,1,2,1,NA,4,2,5,NA,4,4,3,3,1,NA,2,8,3,1,6,4,1,NA,1,NA,NA,NA,NA,NA,NA,NA,NA,NA,NA,4,3,4,4,4,4,4,2,4,3,4,4,4,3,3,3,3,3,2,3,3,2,3,3,4,2,3,2,2,1,2,2,2,1,1,2,2,2,1,2,1,1,1,1,2,1,2,2,2,5,2,2,2,2,2,3,2,NA,2,2,2,2,8,5,2,2,NA,8,NA,2,3,3,6,3,NA,NA,6,3,2,6,6,NA,NA,4,4,4,2,4,4,3,4,2,6,3,3,2,3,2,3,2,2,1,2,2,1,4,1,2,2,2,2,1,2,2,1,5,6,5,6,6,6,6,2,4,2,2,1,4,2,2,2,4,3,2,2,2,3,3,4,2,4,4,4,2,4,2,2,2,2,2,4,2,3,3,2,4,4,4,4,2,2,2,3,4,2,2,2,2,4,4,3,4,2,2,4,4,4,4,2
Poland,1980,2,1,2,5,1.72,76,4,2,15,3,2,NA,1,2,36.7,36.7,36.7,52.25,21,72,2,11:31:12,9,1,2,1,NA,4,4,5,1,6,5,6,4,1,NA,2,5,6,2,8,1,1,NA,2,grupa dot.rodzicielstwa zast?pczego,NA,NA,NA,NA,4,NA,NA,NA,NA,4,4,2,5,3,4,3,4,3,3,5,4,5,3,3,3,4,4,4,4,3,4,3,3,4,5,3,4,3,3,4,2,2,4,2,4,3,4,4,4,4,1,3,3,4,2,4,2,2,2,2,5,5,4,3,2,2,6,2,2,2,2,5,1,3,1,2,7,2,2,2,2,2,2,2,2,6,5,2,7,7,2,2,4,4,4,4,3,3,4,4,3,3,4,4,3,5,3,3,3,2,2,2,2,2,3,2,2,2,2,3,1,1,2,2,3,3,5,3,4,4,5,2,5,3,4,3,1,3,4,1,5,3,2,3,5,4,3,1,4,3,4,4,3,4,4,4,4,4,3,4,3,2,2,2,2,1,3,3,3,2,3,2,5,3,2,2,3,2,3,3,2,3,3,4,2,3,3,2
Zurich,1980,2,1,2,7,1.72,62,2,1,3,0,2,NA,1,2,36.9,36.6,36.75,47.35159302,8.505706787,76,4,11:27:16,1,1,4,1,NA,4,1,4,1,3,1,4,1,1,NA,1,NA,1,NA,NA,1,1,NA,1,NA,NA,NA,NA,NA,NA,NA,NA,NA,NA,4,4,2,3,2,4,3,3,3,3,4,2,3,3,3,3,3,2,3,3,3,3,3,3,4,2,2,2,4,2,4,3,1,1,3,1,3,2,2,2,1,1,2,1,1,2,2,4,3,4,4,4,4,3,4,4,5,4,4,5,2,4,5,4,1,2,2,5,3,5,2,3,3,4,2,3,3,5,3,6,5,3,4,5,4,4,4,3,3,4,4,4,4,4,4,3,4,3,4,3,3,1,3,2,3,3,2,2,2,1,2,3,2,2,2,3,3,7,2,4,3,3,1,3,1,4,4,3,2,3,4,3,3,1,2,4,5,2,2,3,2,4,3,4,4,4,3,3,2,3,4,3,2,3,3,5,4,4,3,2,2,2,3,4,2,2,2,4,4,3,4,3,4,3,3,4,3,3,2
Poland,1980,2,1,1,6,1.7,55,4,2,10,0,2,NA,1,2,36.6,36.9,36.75,52.25,21,70,4,16:28:32,9,1,1,2,2,4,4,2,2,3,2,2,2,2,1,2,4,6,4,2,1,1,NA,1,NA,NA,NA,NA,NA,NA,NA,NA,NA,NA,3,3,2,2,4,3,1,2,1,3,5,2,3,4,3,4,4,3,4,4,4,4,3,3,4,3,4,4,4,3,4,2,3,3,2,4,4,4,3,2,3,2,2,2,4,3,4,2,2,2,2,2,4,2,2,2,4,6,2,2,2,2,5,2,2,2,2,6,2,2,4,2,2,2,3,2,6,3,5,6,6,2,3,4,4,3,4,4,4,4,4,4,5,4,4,3,3,3,4,2,3,2,3,2,2,3,2,2,2,2,3,2,2,3,2,4,5,6,4,4,4,2,1,4,2,5,4,2,2,3,4,4,3,1,2,4,4,2,2,4,2,3,3,3,3,4,3,3,2,3,4,2,2,2,2,3,2,4,2,2,2,3,2,2,3,3,3,3,2,4,3,4,4,4,4,4,4,2,3
Poland,1980,2,1,1,4,1.6,61,3,2,NA,1,2,NA,1,2,37.1,37.1,37.1,51.75,19.46670532,71,9,12:39:43,9,1,1,1,NA,3,3,4,2,4,4,3,3,1,NA,2,6,3,1,8,1,2,7,2,Fundacja przeciwko przemocy,Fundacja samotnych matek,Imperium Kobiet,NA,NA,6,5,10,NA,NA,5,5,1,1,5,5,1,1,2,2,5,5,5,3,3,3,4,5,4,4,2,4,2,4,4,2,3,1,3,2,4,2,3,1,2,1,2,5,2,2,1,2,4,1,4,1,2,1,1,1,1,7,2,1,1,4,1,7,2,2,1,1,6,1,1,1,2,5,1,2,1,1,1,1,3,2,3,5,1,6,7,1,2,5,5,5,5,5,4,4,4,4,3,4,4,4,3,3,3,1,2,4,1,1,2,2,1,1,2,2,2,1,1,1,1,5,7,7,5,5,6,4,1,5,4,4,4,4,1,5,5,4,4,1,2,5,5,2,3,3,4,4,5,5,4,4,4,4,4,1,4,4,1,1,1,1,1,4,3,5,4,3,3,4,4,1,5,3,4,3,2,3,3,5,3,5,5,2,4
Poland,1980,2,1,1,1,1.62,52,3,2,17,4,2,NA,1,2,37.3,37.3,37.3,51.1000061,17.03329468,84,2,11:47:28,9,1,1,1,NA,2,2,4,1,6,6,6,5,1,NA,2,8,6,1,8,4,2,8,2,Trening MBRS,KSR,Grupa psychologiczna,NA,NA,10,12,4,NA,NA,3,4,5,5,5,4,2,4,3,3,4,4,4,3,3,3,3,3,4,4,4,4,4,3,4,4,3,2,3,2,2,2,2,2,2,2,2,2,2,2,2,2,2,2,2,2,2,2,2,1,2,4,2,2,1,1,2,7,2,4,2,2,5,2,2,2,2,6,2,2,2,2,2,2,3,2,5,4,2,6,6,2,4,4,4,4,4,4,4,3,4,3,2,4,3,3,4,2,3,3,2,2,3,2,4,4,2,3,2,2,3,3,2,2,2,4,7,6,4,3,2,4,2,4,3,4,3,4,3,3,4,4,2,1,3,4,4,3,3,3,3,4,3,4,4,4,4,4,3,3,4,3,2,2,2,2,3,4,2,3,2,3,3,3,2,4,2,4,4,4,3,4,2,4,4,4,3,4,3
Oxford,1981,1,1,1,7,1.9304,75,5,2,0,0,2,NA,1,2,34.7,36,35.35,51.75,-1.25,89,-1.666666667,08:05:35,5,1,2,1,NA,2,2,5,NA,8,8,4,3,2,8,2,8,3,3,8,2,1,NA,1,NA,NA,NA,NA,NA,NA,NA,NA,NA,NA,3,3,4,5,4,4,3,2,4,4,4,2,4,2,3,2,3,2,2,1,2,2,2,2,4,2,2,4,4,3,4,2,2,4,2,4,4,3,4,3,4,2,2,2,2,2,4,2,2,2,2,4,2,2,2,2,2,2,2,2,2,2,2,2,2,2,2,2,2,2,2,2,2,6,2,2,2,2,2,4,2,2,2,4,4,4,4,4,4,4,4,4,5,7,7,6,5,5,5,1,1,1,2,1,1,1,1,2,1,1,3,2,2,3,5,2,2,3,2,2,1,1,1,4,4,4,3,2,2,3,3,4,3,2,4,3,2,2,2,4,4,4,4,4,4,4,4,4,4,4,4,4,2,2,2,3,2,3,3,2,3,4,3,4,4,4,2,3,3,3,3,2,3,2,2,2,3,4,2
Poland,1981,2,1,2,6,1.67,51,3,2,3,3,2,NA,1,2,36.5,35.8,36.15,52.25,21,68,0,09:53:28,9,1,1,1,NA,4,2,2,2,1,NA,3,3,1,NA,2,5,6,3,4,1,1,NA,2,ustawienia,NA,NA,NA,NA,1,NA,NA,NA,NA,3,3,4,3,4,4,3,4,3,4,5,3,4,2,3,2,4,5,4,3,2,4,3,1,2,2,2,2,2,1,1,1,2,2,1,2,3,2,3,3,3,2,1,1,2,1,3,1,1,1,1,4,1,1,2,1,1,7,2,3,1,1,1,1,2,2,4,7,2,1,2,2,2,2,4,5,7,7,3,7,7,2,2,5,3,4,4,4,4,4,3,3,3,4,3,3,3,3,3,2,1,5,1,3,3,1,1,1,1,2,4,3,1,1,1,5,5,4,5,5,8,8,1,5,2,4,2,4,2,3,4,4,3,1,2,3,3,2,4,2,4,4,5,3,4,4,4,4,4,3,3,2,2,2,2,2,3,4,3,5,3,3,2,4,3,2,2,2,4,5,5,3,4,4,2,5,3,2,3
Serbia,1981,2,1,2,7,1.7,73,5,2,0,0,2,NA,1,2,36.4,36.1,36.25,44,21,42,16,12:37:14,6,1,1,2,2,4,2,4,4,4,2,4,2,1,NA,1,NA,2,1,7,1,1,NA,1,NA,NA,NA,NA,NA,NA,NA,NA,NA,NA,5,4,5,5,4,3,1,4,5,3,4,4,2,3,3,4,2,2,2,2,2,3,2,3,4,2,2,1,1,1,1,1,1,1,1,3,4,3,3,4,4,3,3,3,2,3,3,2,1,3,2,4,1,4,2,7,3,1,2,2,2,1,2,2,2,3,NA,7,NA,2,4,2,NA,NA,NA,NA,NA,NA,2,7,7,NA,NA,4,4,4,4,4,2,2,2,2,4,3,2,2,2,2,2,2,2,3,2,2,2,3,2,3,2,2,1,1,1,1,2,1,2,4,1,4,2,2,3,3,3,3,3,3,3,2,2,4,2,3,5,3,4,2,5,5,5,4,3,5,5,1,3,3,3,4,3,3,2,1,3,1,2,3,2,5,3,1,4,5,1,3,3,4,3,2,4,4,4,3,1,3,3,4,1
Poland,1981,2,1,1,7,1.6,50,5,2,20,0,2,NA,1,2,36.4,36.3,36.35,50.31539917,19.07820129,70,-1,13:28:09,9,1,1,1,NA,4,4,4,1,8,4,4,4,2,1,2,8,6,4,8,3,1,NA,2,fitness,NA,NA,NA,NA,3,NA,NA,NA,NA,4,4,5,4,4,4,3,3,3,4,5,5,4,3,3,3,4,4,4,4,3,3,4,4,4,5,2,1,2,1,3,1,1,1,1,1,1,1,3,2,3,1,1,1,2,1,3,2,5,5,6,6,1,5,1,5,2,3,1,2,1,2,6,2,1,1,2,1,1,1,1,1,1,1,2,2,2,2,1,4,3,2,5,4,5,4,5,4,4,4,5,4,5,7,7,7,7,5,5,2,1,1,2,2,1,3,2,1,2,1,4,2,1,3,2,4,5,6,4,5,7,4,1,5,2,5,4,4,2,2,4,3,2,2,2,4,4,2,3,4,2,4,3,3,4,5,4,5,5,4,5,4,1,1,1,1,3,5,3,2,2,3,2,4,2,2,1,4,4,5,5,3,2,4,4,3,3,3,2
Chile,1981,1,1,1,6,1.75,80,5,2,0,0,2,2,1,2,36.6,36.3,36.45,33.42628098,-70.56655884,72,2,10:05:06,2,1,1,3,1,4,4,2,1,3,3,5,4,1,NA,1,NA,4,2,3,2,1,NA,1,NA,NA,NA,NA,NA,NA,NA,NA,NA,NA,5,3,2,4,1,4,4,4,5,2,5,4,1,3,2,3,1,2,1,2,2,2,1,3,5,3,2,2,4,2,2,2,1,2,1,2,3,2,3,1,3,1,1,1,1,2,3,1,1,1,1,1,2,1,4,5,1,7,1,4,1,1,2,1,3,4,4,5,4,7,3,6,3,3,4,4,6,5,4,7,7,6,7,4,5,5,5,5,3,2,3,4,4,4,3,3,2,2,2,4,2,1,4,1,1,3,4,5,1,1,1,3,2,3,2,2,2,1,2,1,2,2,5,2,2,5,5,2,2,3,3,2,2,4,2,4,2,2,2,2,1,3,5,5,2,1,3,2,4,3,4,4,3,4,5,5,5,5,5,5,1,1,1,5,1,1,3,5,2,2,2,5,1,4,3,2,2,5,1
Oxford,1981,1,1,1,7,1.9,92,3,2,4,0,2,NA,2,2,36.3,36.7,36.5,51.75,-1.25,88,-2.222222222,08:35:56,5,1,1,1,NA,4,4,4,4,4,2,4,2,1,NA,2,4,2,3,3,1,1,NA,2,NA,NA,NA,NA,NA,NA,NA,NA,NA,NA,3,4,4,2,2,2,3,2,2,4,3,3,4,3,3,3,2,3,2,3,2,3,2,3,4,3,3,3,4,3,4,3,2,3,4,3,2,2,2,3,2,2,2,2,2,2,3,7,4,4,4,5,5,6,2,6,4,4,3,6,5,3,2,1,5,3,2,4,7,2,2,2,3,2,3,2,2,2,2,2,4,3,2,4,4,4,4,4,3,3,3,3,5,4,5,4,3,3,4,2,5,4,2,3,4,4,3,2,3,2,3,1,1,2,1,4,5,7,1,6,5,5,1,3,1,5,5,5,2,2,5,2,2,5,1,3,5,1,5,3,2,4,2,2,4,5,5,5,3,4,3,2,2,3,3,4,5,4,3,5,4,2,1,4,2,5,1,4,5,5,3,4,2,3,4,4,5,3,5
Poland,1981,2,1,1,5,1.7,60,4,2,5,1,2,NA,1,2,35.4,37.7,36.55,60.21670532,24.66670227,62,-2,09:54:11,9,1,1,3,3,3,1,2,2,6,5,6,6,2,1,2,8,6,8,8,5,2,8,2,Counselling,PTO,International Club,NA,NA,10,15,10,NA,NA,2,4,4,4,3,5,4,4,2,4,4,4,4,2,2,3,4,4,4,4,2,4,4,2,4,4,2,3,4,2,4,3,2,3,2,2,4,4,4,4,3,2,2,2,3,2,4,2,2,2,2,2,2,2,2,6,2,6,2,3,2,2,2,2,2,2,2,3,2,2,2,2,2,2,2,2,3,2,2,6,6,2,2,4,4,4,4,4,4,4,4,4,4,4,5,4,5,5,4,2,2,2,2,2,2,2,2,2,2,2,3,3,2,2,3,4,5,6,4,4,4,4,2,4,4,4,2,3,2,2,2,5,2,1,4,3,3,2,2,3,4,4,2,3,4,4,3,4,4,3,4,4,2,2,3,2,2,4,3,2,2,2,3,4,3,1,2,3,4,3,3,3,4,3,3,3,3,3,2
Oslo,1981,2,1,1,7,1.64,60,3,2,0,1,2,NA,1,2,36.5,36.6,36.55,59.91270447,10.74609375,76,-6,14:01:31,4,1,1,2,1,4,2,4,4,3,3,3,2,1,NA,2,4,2,1,1,1,1,NA,1,NA,NA,NA,NA,NA,NA,NA,NA,NA,NA,2,5,4,5,5,1,2,2,4,3,3,5,3,3,3,5,3,3,3,3,4,4,3,3,4,3,3,4,4,2,4,4,2,4,2,2,4,3,4,4,4,4,3,4,4,4,4,1,2,2,1,5,2,2,2,7,1,2,2,2,2,2,6,6,2,1,2,4,2,2,2,2,3,2,1,2,4,2,1,2,2,2,2,4,4,4,5,3,4,4,4,4,5,4,4,3,5,4,4,1,1,1,1,1,1,1,1,1,1,1,3,1,1,1,2,4,7,7,5,5,1,5,3,5,2,4,3,1,4,4,2,4,4,2,4,4,2,4,4,4,3,3,4,5,4,3,4,3,3,4,5,4,2,2,4,2,2,4,2,2,2,2,2,4,4,2,2,4,2,2,2,4,2,2,4,4,2,4,4
Zurich,1981,2,1,2,6,1.7,71,3,2,5,7,1,4,1,2,36.4,36.9,36.65,47.02589417,8.622802734,70,1,11:07:06,1,1,4,1,NA,4,4,5,NA,8,5,3,3,1,NA,2,3,3,8,8,1,1,NA,1,NA,NA,NA,NA,NA,NA,NA,NA,NA,NA,2,1,3,4,2,3,2,1,4,4,4,3,4,3,4,4,3,2,3,3,4,3,3,4,3,2,3,2,4,3,4,1,2,3,1,2,4,2,3,4,1,1,1,1,1,1,3,4,4,4,4,4,5,4,3,4,4,4,4,3,2,2,4,3,2,2,2,6,2,3,2,2,2,2,2,2,1,2,2,7,6,1,4,4,5,4,5,5,5,5,5,5,4,6,6,4,5,4,4,2,2,1,2,2,3,2,2,3,2,3,3,2,1,3,2,4,7,5,2,4,5,6,2,4,3,3,2,3,3,3,2,5,4,1,3,4,4,3,3,1,2,4,4,4,3,3,3,4,4,2,3,3,2,2,3,1,3,3,4,2,3,3,2,3,3,1,1,4,5,1,2,1,1,3,4,2,3,2,3
Chile,1981,2,1,1,7,1.6,58,4,2,1,0,1,NA,1,2,36.5,36.8,36.65,33.44999695,-70.66670227,74,6,11:23:31,2,1,1,2,2,4,4,1,NA,7,7,8,7,1,NA,1,NA,4,1,3,2,1,NA,1,NA,NA,NA,NA,NA,NA,NA,NA,NA,NA,2,3,3,5,4,4,2,2,3,5,3,5,3,2,3,3,2,2,2,2,3,2,2,2,4,2,2,3,2,2,3,3,2,3,2,3,4,3,4,4,4,2,2,2,2,3,4,2,2,1,2,2,4,3,2,2,2,2,2,1,2,2,1,5,2,2,1,2,1,2,2,2,2,1,2,1,1,1,2,4,2,1,2,5,5,4,5,4,4,3,5,5,3,3,2,1,2,2,1,2,2,2,2,3,2,2,2,2,2,2,2,2,2,2,2,5,5,4,3,5,3,3,2,4,3,4,4,3,3,3,3,4,3,3,4,3,2,3,2,3,3,3,3,3,4,4,4,4,4,4,4,3,1,1,2,2,2,3,2,3,3,3,3,3,3,3,2,4,2,3,3,4,3,3,4,3,3,3,3
Kassel,1981,2,1,1,6,1.74,64,2,3,35,0,2,NA,1,2,36.8,36.7,36.75,51.49180603,10.79519653,61,10,11:11:28,1,1,1,2,2,4,4,4,4,4,1,8,4,2,1,2,8,1,NA,NA,2,1,NA,1,NA,NA,NA,NA,NA,NA,NA,NA,NA,NA,4,3,3,3,3,4,2,2,3,2,5,3,4,3,3,4,3,2,3,2,3,3,2,3,4,2,3,3,4,2,4,4,2,4,3,4,4,4,3,4,3,2,4,4,4,2,3,5,5,6,6,6,5,2,5,5,6,2,3,5,2,6,5,5,3,3,2,6,2,5,3,4,5,6,3,3,3,4,3,6,6,5,5,4,4,4,4,3,4,3,4,3,6,4,5,4,3,3,3,2,4,1,3,4,2,2,3,2,2,2,2,3,2,3,2,4,5,4,3,4,3,4,1,4,2,4,3,4,2,2,4,3,3,1,1,3,4,2,2,4,2,4,4,4,4,3,3,3,2,4,3,3,3,3,4,4,3,4,3,4,2,2,2,4,2,3,2,2,4,4,3,3,2,4,3,4,4,2,5
Poland,1981,2,1,2,7,1.62,52,3,2,8,4,2,NA,1,2,36.9,37.2,37.05,52.08329773,21.03329468,63,NA,11:24:22,9,1,4,1,NA,4,4,5,1,5,3,5,4,1,NA,2,5,2,1,1,1,2,8,1,NA,NA,NA,NA,NA,NA,NA,NA,NA,NA,3,2,3,5,5,5,1,1,1,5,2,5,3,3,4,4,3,3,3,3,4,3,3,3,4,3,4,2,2,2,2,2,2,2,2,2,4,2,4,2,4,1,2,2,2,2,4,2,2,1,2,2,2,2,5,2,4,7,1,1,1,1,7,1,1,2,2,6,2,6,1,1,2,2,2,2,6,6,1,7,7,2,4,2,2,3,3,1,2,2,2,2,6,2,2,2,2,5,5,1,1,1,2,3,1,2,2,1,1,2,2,2,2,3,2,3,4,5,2,2,1,3,1,2,1,5,5,2,1,2,4,2,1,2,1,2,4,1,1,2,1,3,4,1,4,4,3,4,1,3,4,1,1,4,1,1,5,3,3,2,3,4,2,4,2,1,3,3,4,3,3,4,2,1,4,3,4,2,2
Poland,1981,2,1,1,4,1.77,60,3,1,5,0,2,NA,1,2,37.1,37.1,37.1,52.25,21,70,4,11:21:23,9,1,1,2,2,2,2,2,1,2,2,2,2,1,NA,2,8,6,1,8,1,1,NA,1,NA,NA,NA,NA,NA,NA,NA,NA,NA,NA,3,3,3,3,4,4,2,3,3,3,5,3,3,2,4,3,4,4,4,4,3,3,4,3,3,4,2,1,2,2,2,1,2,2,1,1,2,1,2,1,1,1,1,1,1,1,2,2,2,2,2,5,5,2,2,2,2,6,4,2,4,2,5,4,2,2,2,7,1,2,2,1,2,2,2,2,3,2,2,7,6,2,3,4,4,4,4,4,3,4,3,3,3,3,3,3,3,3,3,3,3,3,2,3,3,4,2,2,2,3,3,2,3,2,2,5,5,7,5,5,5,5,1,2,1,5,5,5,1,1,5,1,1,1,1,1,4,1,3,1,3,5,5,4,4,5,5,4,3,4,5,3,1,3,1,3,3,3,3,3,3,3,2,2,3,3,1,4,3,4,4,4,3,4,4,3,3,3,3
Oxford,1982,2,1,1,7,1.6002,56.81818182,3,2,3,0,2,NA,1,2,35.4,36.6,36,51.75,-1.25,71,1.666666667,08:58:39,5,1,1,1,NA,4,4,4,1,4,2,5,3,1,NA,2,5,3,1,4,2,1,NA,2,Graduate Student Committee,NA,NA,NA,NA,5,NA,NA,NA,NA,4,2,3,3,3,2,2,3,2,3,4,5,5,3,3,5,3,3,3,3,5,3,1,3,5,2,5,2,4,2,4,3,3,3,4,4,4,3,4,4,4,1,1,1,3,1,4,2,2,2,5,2,4,2,3,2,2,2,2,2,2,2,2,4,2,2,1,5,2,2,2,2,1,2,1,1,1,1,2,2,5,1,2,4,5,5,5,4,4,4,4,4,4,5,5,4,5,4,5,4,4,4,3,4,3,4,3,2,2,3,1,2,1,2,2,4,4,6,5,6,2,2,1,4,4,5,4,5,3,3,5,3,2,1,1,4,4,1,3,4,3,4,4,4,3,5,4,4,4,3,5,4,4,4,3,4,4,4,3,2,2,4,4,2,3,4,1,4,4,4,3,4,2,3,4,4,4,2,4
UCSB,1982,2,1,2,7,1.6002,65,3,1,0,0,2,NA,1,2,36.27777778,35.94444444,36.11111111,34.4329071,-119.8370972,80,8.333333333,NA,5,1,2,2,2,4,2,4,4,3,2,4,3,1,NA,2,3,1,NA,NA,4,1,NA,1,NA,NA,NA,NA,NA,NA,NA,NA,NA,NA,3,3,3,3,4,2,2,2,2,2,4,2,4,2,4,4,3,2,2,2,3,3,3,3,4,1,3,4,4,1,4,1,2,4,4,5,4,4,4,3,4,3,2,2,2,2,4,1,1,1,2,1,1,1,1,1,1,2,2,1,2,1,1,1,1,1,1,1,1,2,2,2,2,7,1,4,1,1,1,1,5,1,2,3,4,3,5,4,4,5,4,4,4,2,5,3,1,1,2,1,2,1,2,1,1,1,1,2,1,1,2,2,2,3,1,5,6,4,2,3,3,3,3,4,2,5,3,4,2,4,4,5,4,2,4,4,2,4,4,4,4,4,5,4,4,5,5,3,2,2,3,2,2,4,3,1,4,2,4,4,2,4,3,4,3,4,1,3,4,4,4,4,4,4,4,4,4,2,4
Zurich,1982,1,1,2,4,1.79,77,4,2,0,0,2,NA,1,2,36.43,36.05,36.24,47.36669922,8.550003052,74,3,11:42:50,1,1,2,1,NA,4,2,5,NA,1,NA,4,2,2,1,1,NA,3,1,8,2,1,NA,1,NA,NA,NA,NA,NA,NA,NA,NA,NA,NA,3,3,3,3,2,4,2,3,4,3,3,4,3,3,3,3,3,3,2,3,3,2,2,4,3,2,3,3,2,3,3,3,3,3,3,2,2,3,3,3,3,3,2,3,4,3,3,3,4,4,5,3,3,5,4,3,3,4,4,4,5,4,4,5,5,4,4,4,4,4,4,3,4,4,5,6,4,4,3,5,4,4,4,3,3,2,3,3,3,3,3,3,3,5,5,5,5,5,4,3,4,3,3,3,3,4,4,3,3,3,2,3,3,2,3,3,3,5,4,4,5,5,2,4,4,2,1,1,5,5,1,5,5,4,4,5,2,4,2,4,2,3,5,4,4,4,3,4,4,3,4,4,2,3,3,2,4,4,3,3,4,3,3,3,3,4,4,4,3,3,3,4,4,3,3,3,4,3,3
Chile,1982,2,1,1,7,1.67,66,3,2,0,1,2,0,1,2,36.4,36.2,36.3,33.44999695,-70.66670227,79,2,11:54:39,2,1,1,2,2,4,3,4,1,2,1,2,1,1,NA,1,NA,5,1,8,1,1,NA,1,NA,NA,NA,NA,NA,NA,NA,NA,NA,NA,2,2,3,4,4,2,2,2,2,4,4,3,4,3,4,4,2,2,3,3,4,3,3,4,4,3,4,3,4,1,4,1,2,3,4,3,3,2,3,2,2,2,3,3,2,2,3,4,5,4,2,1,6,6,1,5,2,5,2,1,1,2,6,5,1,7,2,7,1,7,1,1,1,1,1,1,1,1,1,4,6,1,1,5,5,5,5,4,5,4,4,4,4,4,3,3,2,3,3,1,2,4,4,1,1,3,3,1,2,2,4,3,3,2,3,5,6,4,4,4,1,1,1,5,1,5,5,3,2,3,4,2,1,3,2,2,3,2,1,3,1,1,5,4,1,2,1,3,2,3,3,3,2,2,2,4,4,3,5,2,3,4,4,2,3,2,5,2,1,2,1,1,2,1,2,3,3,2,2
Poland,1982,2,1,1,7,1.62,58,5,2,60,0,2,NA,1,2,36.5,36.4,36.45,53.33309937,-6.248901367,82,0,09:54:03,9,1,1,1,NA,1,1,1,1,8,4,5,6,2,1,2,8,6,1,4,2,1,NA,2,przyjaciele,znajomi,praca,rodzina,inne,4,2,3,4,2,1,3,5,5,4,5,2,4,2,5,5,5,5,2,4,3,5,4,4,4,2,4,5,3,3,5,1,4,2,1,1,2,2,2,2,2,4,2,4,2,4,1,2,1,1,1,2,1,1,1,1,1,1,1,1,1,1,7,1,1,1,1,1,1,1,1,1,7,1,1,1,1,1,1,1,1,1,1,1,7,7,1,1,5,5,5,5,5,5,5,5,5,7,7,6,6,6,6,6,1,1,1,1,1,1,1,1,1,1,1,2,1,1,1,2,2,3,3,2,2,2,2,1,4,2,5,4,2,1,2,2,1,1,1,2,3,4,2,1,2,3,4,4,4,4,4,4,5,5,2,4,5,1,1,1,1,4,4,3,1,3,2,3,4,2,2,1,3,4,4,3,3,2,3,3,3,3,3,3
Poland,1982,2,1,1,1,1.6,78,4,2,7,4,2,NA,1,2,36.5,36.6,36.55,50.63330078,20.30000305,79,NA,10:57:28,9,1,1,2,2,4,4,4,2,4,4,5,5,2,1,2,8,2,1,1,2,1,NA,1,NA,NA,NA,NA,NA,NA,NA,NA,NA,NA,4,3,4,5,5,5,3,4,1,5,5,5,4,3,3,3,3,4,4,3,3,3,5,3,3,4,3,1,1,1,1,2,5,1,1,1,2,2,2,2,2,1,1,1,1,1,2,1,1,1,1,7,1,1,1,1,1,7,1,1,1,1,5,5,1,1,1,7,1,1,1,1,1,1,1,1,2,1,1,7,7,1,1,5,5,5,5,5,5,5,5,5,2,2,2,2,2,2,2,1,1,1,1,1,1,1,1,1,1,1,1,1,1,1,1,4,6,3,2,2,2,2,4,5,5,1,1,1,5,5,1,5,5,5,5,5,1,5,1,5,3,4,2,5,3,3,1,3,3,3,4,3,1,3,3,1,1,3,3,2,1,1,3,5,2,1,3,5,4,3,3,2,2,1,1,1,3,5,3
Oxford,1982,2,1,2,2,1.7272,63.63636364,4,1,0,0,2,NA,1,2,36.4,36.7,36.55,51.75,-1.25,71,1.666666667,09:01:37,5,1,2,1,NA,4,2,5,NA,2,2,6,6,1,NA,2,8,3,1,8,1,1,NA,1,NA,NA,NA,NA,NA,NA,NA,NA,NA,NA,4,2,4,4,2,3,2,4,2,3,4,2,5,2,3,3,1,1,1,1,2,3,1,2,5,1,2,3,4,1,4,1,1,2,2,4,1,1,1,1,1,1,1,1,1,1,1,5,5,5,5,5,5,1,5,5,3,2,3,5,1,5,5,6,1,4,4,7,5,5,5,5,5,6,2,4,5,5,5,7,7,4,3,5,3,5,5,3,3,2,3,3,4,4,4,4,4,4,4,3,3,1,3,1,3,2,2,4,3,1,2,1,3,3,3,2,2,2,2,2,3,3,2,4,4,4,2,4,2,4,4,4,3,1,3,2,4,1,2,4,1,4,5,5,2,5,4,4,3,2,2,2,1,1,1,3,4,3,4,3,1,3,2,2,1,2,1,4,4,3,2,1,4,4,1,1,4,1,1
Poland,1982,1,1,2,6,1.92,96,4,1,22,10,2,NA,1,2,36.6,36.7,36.65,52.59309387,19.08940125,79,NA,11:01:23,9,1,2,1,NA,3,1,5,1,3,3,8,8,2,8,2,5,6,1,8,2,2,5,2,Uczniowie,Podopieczni,NA,NA,NA,15,20,NA,NA,NA,4,4,4,3,3,4,3,4,3,4,5,3,5,2,3,3,4,4,4,4,2,4,3,3,4,4,2,3,2,2,4,4,1,3,2,4,3,4,2,3,2,3,3,1,2,1,4,4,4,4,4,4,5,4,4,4,4,4,4,4,4,4,4,2,4,4,4,4,4,4,4,4,4,4,4,4,4,4,4,4,4,4,4,4,4,4,3,4,2,2,4,4,4,6,6,6,7,5,5,2,2,3,2,2,2,3,2,1,2,2,3,2,2,2,2,4,6,6,6,6,6,6,1,4,2,4,3,4,3,3,4,4,3,5,4,3,4,2,2,3,4,4,3,4,4,3,4,3,4,4,3,4,3,4,3,2,2,4,4,4,2,4,3,4,3,2,1,2,4,3,1,4,4,2,3,4,3,3,1
Zurich,1982,2,1,1,7,1.7,50,4,3,10,0,2,NA,1,2,36.9,36.7,36.8,NA,NA,75,-3,09:53:23,1,1,2,1,NA,4,4,4,1,4,2,5,3,1,NA,2,5,3,5,2,3,1,NA,1,NA,NA,NA,NA,NA,NA,NA,NA,NA,NA,3,3,3,4,4,3,2,2,3,4,4,4,4,3,3,3,2,3,2,2,3,2,2,3,4,2,3,2,2,2,4,2,1,2,2,2,4,4,2,4,2,2,2,2,2,1,2,3,2,2,2,2,2,2,2,5,1,5,2,2,2,2,1,3,1,2,1,4,2,2,2,1,2,2,2,1,2,3,1,5,6,2,2,4,4,4,4,3,3,3,4,4,5,4,5,5,4,4,4,2,4,1,3,1,2,2,2,2,2,2,4,2,2,2,2,4,6,6,3,4,5,4,1,4,1,4,1,4,2,2,5,4,2,1,2,3,4,1,2,3,2,4,4,4,4,3,2,3,3,3,3,3,2,2,2,2,2,4,3,2,4,3,2,4,4,2,2,4,4,3,2,4,2,4,4,3,3,3,2
Poland,1982,2,1,1,7,1.65,52,3,1,3,0,2,NA,1,2,37.4,38.1,37.75,52.25,21,63,0,10:55:08,9,1,1,3,3,4,1,4,1,5,5,8,6,1,NA,2,8,2,1,1,3,1,NA,2,fitness,rodzice szko?a,rodzice przedszkole,wychowawcy,kancelaria,7,7,7,7,5,4,4,3,5,4,4,3,4,2,4,5,3,4,3,3,4,4,4,4,3,3,4,3,3,4,4,3,1,3,3,3,1,4,1,1,2,4,4,4,3,4,1,1,1,2,1,4,4,4,3,5,4,5,2,2,4,3,5,3,2,2,2,6,5,2,2,2,3,2,2,2,2,2,2,2,2,3,2,2,6,6,2,3,5,5,5,5,5,5,5,5,5,7,4,4,4,4,4,4,1,1,1,1,1,3,2,2,1,1,1,2,1,1,2,1,5,7,6,5,5,1,1,2,4,2,5,4,2,3,3,3,4,2,2,3,4,4,2,2,3,2,4,3,3,4,5,3,4,1,4,4,1,1,5,1,1,3,4,4,3,2,1,4,5,3,2,3,5,3,4,4,5,3,4,4,4,2,2,4
Kassel,1983,1,1,2,3,1.72,67,2,2,0,2,2,NA,1,2,35.3,35.5,35.4,51.24960327,9.42489624,79,0,09:47:19,1,1,2,1,NA,4,4,5,NA,6,1,2,2,1,NA,1,NA,3,1,8,1,1,NA,1,NA,NA,NA,NA,NA,NA,NA,NA,NA,NA,3,1,4,4,2,4,1,2,3,1,2,4,4,2,3,5,3,4,4,4,4,4,4,5,5,3,3,4,4,2,4,4,2,3,2,4,3,4,4,4,1,1,1,1,2,1,1,1,1,1,1,1,1,1,1,7,1,7,1,1,1,1,1,1,1,1,7,1,7,1,1,1,7,7,7,7,7,7,1,7,7,7,7,1,1,1,1,1,1,2,2,3,5,7,7,7,7,7,7,2,1,1,2,2,4,5,1,2,2,1,2,2,3,4,3,5,3,5,2,3,2,3,4,4,2,5,2,4,4,3,5,5,1,5,5,2,4,3,3,3,3,3,3,4,4,3,3,3,2,3,3,3,3,4,3,1,4,4,3,3,3,3,3,3,3,4,1,3,4,4,3,4,3,5,3,3,4,1,1
METU,1983,2,1,1,7,1.63,58,4,1,0,0,2,NA,1,2,35,36.4,35.7,39.91169739,32.84030151,0,3,10:45:40,3,2,1,1,NA,2,2,4,4,7,7,3,3,1,NA,2,8,3,1,8,1,1,NA,1,NA,NA,NA,NA,NA,NA,NA,NA,NA,NA,3,3,4,3,3,3,3,2,2,4,4,3,4,3,3,4,3,3,3,3,2,3,3,4,4,2,3,3,3,2,3,3,2,3,3,3,5,3,5,4,5,1,1,1,4,2,5,6,5,1,5,5,3,3,2,3,2,3,2,1,2,5,5,4,1,6,2,2,2,6,1,2,2,2,2,2,2,2,2,2,2,2,2,5,5,5,5,5,5,5,5,5,6,5,5,5,5,4,4,2,2,2,2,2,3,3,2,2,2,2,2,1,2,2,2,5,4,5,1,4,1,1,2,2,3,4,3,3,2,4,2,4,4,2,3,4,4,2,4,3,2,4,4,4,2,4,3,5,5,3,5,5,1,1,1,2,2,3,2,1,4,4,4,3,4,4,3,4,4,5,5,5,1,5,5,5,3,4,3
METU,1983,2,1,2,4,1.69,58,3,2,NA,0,2,NA,1,2,36,36,36,39.92300415,32.83779907,49,6,10:53:48,3,2,2,1,NA,4,2,5,NA,5,4,5,5,1,NA,1,NA,3,1,8,2,1,NA,2,G??men Dayan??ma A??,NA,NA,NA,NA,2,NA,NA,NA,NA,2,4,3,3,2,2,3,1,1,4,3,3,4,4,3,3,3,3,3,3,3,3,3,5,5,3,3,4,4,4,5,4,1,3,1,2,2,4,4,2,4,3,2,4,4,4,4,3,2,2,2,7,6,2,5,3,2,6,5,5,2,5,5,5,1,2,1,2,2,1,1,1,1,1,2,2,2,1,1,2,3,1,2,2,2,3,2,2,2,2,2,3,7,6,5,5,7,6,7,3,2,3,2,3,4,4,2,1,4,3,3,2,2,3,1,5,7,6,1,4,3,2,2,2,3,5,4,1,2,2,2,4,3,2,4,4,4,2,3,4,4,4,3,3,5,5,5,5,1,4,4,1,1,5,2,2,4,5,3,4,2,4,2,4,3,3,2,3,4,5,5,4,1,3,5,2,2,2,4
Poland,1983,2,1,1,7,1.6,60,4,2,12,0,2,NA,1,2,36.31,36.12,36.215,52.59309387,19.08940125,85,NA,09:28:10,9,1,1,1,NA,3,1,5,1,2,2,2,2,1,NA,2,2,3,1,2,3,1,NA,1,NA,NA,NA,NA,NA,NA,NA,NA,NA,NA,4,2,5,4,2,5,4,4,1,2,5,1,4,1,3,2,4,5,5,5,2,5,4,2,2,4,1,3,4,2,3,3,2,2,2,2,2,2,2,2,2,2,2,2,4,2,2,1,1,2,2,5,1,1,4,7,1,7,1,1,1,7,5,6,1,2,3,7,1,1,5,1,1,6,4,3,4,4,1,1,7,1,2,1,1,1,1,1,1,1,1,1,2,5,4,4,5,5,5,3,3,3,2,3,3,2,4,3,3,2,2,4,2,4,2,4,5,7,4,4,4,4,1,4,2,5,3,2,2,4,4,4,1,2,2,4,4,2,2,2,4,4,4,2,4,4,4,4,1,2,4,1,1,1,1,1,3,3,1,5,4,3,2,2,2,4,1,2,4,2,2,4,4,4,4,4,4,4,4
Poland,1983,2,1,1,5,1.74,62,4,2,4,0,2,NA,1,2,36.4,36.5,36.45,54.3500061,18.66670227,82,3,10:19:16,9,1,1,2,2,3,3,1,1,3,3,3,3,1,NA,2,8,6,1,3,1,1,NA,1,NA,NA,NA,NA,NA,NA,NA,NA,NA,NA,3,4,2,5,5,3,3,2,2,4,4,3,5,2,3,4,4,3,4,4,2,4,3,3,5,4,3,3,4,3,2,4,2,1,2,5,5,4,5,5,5,1,2,1,2,2,5,2,2,2,2,5,4,1,5,2,2,6,5,1,1,1,5,4,2,2,2,5,2,1,3,4,5,5,2,2,3,3,2,5,5,2,2,5,5,5,5,5,5,4,5,5,7,5,5,4,6,5,5,3,3,1,3,1,1,4,1,2,2,2,2,2,1,2,2,4,3,5,1,3,1,3,2,4,2,5,3,3,2,2,4,4,2,2,2,3,5,2,5,3,1,3,4,5,4,4,2,4,5,4,5,4,3,3,2,1,2,4,2,2,2,3,2,4,3,1,2,4,4,2,1,3,2,4,4,4,3,2,3
Poland,1983,1,1,2,7,1.72,63,5,2,32,0,2,NA,1,2,37,36.2,36.6,52.41670227,16.96670532,86,3,09:54:24,9,1,2,1,NA,4,4,5,1,6,5,5,4,2,8,2,8,6,8,8,1,2,8,2,studenci,nauczyciele,uczniowie,oaza,ruch charyzmatyczny,20,24,180,21,18,3,5,3,5,5,5,4,3,3,5,5,5,5,2,3,3,4,4,4,4,3,4,4,3,3,4,2,2,2,2,5,2,1,2,1,4,4,1,2,2,2,1,1,1,2,2,1,3,2,2,2,3,2,3,2,3,2,6,2,2,2,2,3,2,2,2,3,2,3,2,5,2,3,2,3,3,3,3,2,6,6,2,3,5,4,4,5,5,5,3,4,4,1,3,1,2,2,2,1,1,2,1,1,4,2,2,1,1,1,1,2,2,1,3,3,3,3,2,3,3,1,2,2,4,2,4,2,4,3,2,4,4,2,2,2,2,4,2,4,2,3,4,2,3,4,4,4,3,4,4,3,4,3,2,3,3,2,4,4,2,2,4,2,4,2,3,2,4,2,2,4,2,2,2,4,2,4,4,2
Zurich,1983,2,1,1,7,1.7,65,3,2,6,2,1,0.25,1,2,36.5,36.7,36.6,47.36669922,8.550003052,76,4,11:06:25,1,1,2,1,NA,4,4,4,2,4,4,3,2,1,NA,2,2,3,1,8,1,1,NA,1,NA,NA,NA,NA,NA,NA,NA,NA,NA,NA,4,3,3,2,3,4,2,2,2,3,3,3,4,3,3,3,3,2,2,3,3,3,3,3,4,3,3,3,4,4,3,4,2,4,2,4,4,3,4,4,3,2,2,2,2,3,3,2,3,2,2,2,4,2,6,2,2,2,2,2,2,2,2,5,2,2,2,2,2,2,2,2,2,2,2,2,2,2,2,2,4,2,2,4,4,4,4,4,4,3,4,4,7,6,6,6,6,6,6,2,2,2,2,2,2,3,2,2,2,2,4,2,2,3,2,5,8,5,5,5,5,5,3,2,4,4,3,2,4,2,3,4,3,3,2,3,2,4,4,4,3,4,4,2,4,5,5,3,3,3,4,4,2,2,3,4,2,3,2,4,2,3,2,4,2,2,2,4,4,4,4,4,2,3,4,3,4,2,3
Kassel,1983,1,1,1,7,1.83,75,2,2,1,0,2,NA,1,2,36.5,36.9,36.7,52.51669312,13.3999939,80,7,10:55:28,1,1,1,1,NA,4,4,4,1,2,1,7,4,2,1,1,NA,2,1,8,3,1,NA,1,NA,NA,NA,NA,NA,NA,NA,NA,NA,NA,3,3,5,3,2,3,2,3,3,4,4,2,5,2,3,5,2,2,2,2,3,2,2,2,2,2,3,3,4,3,4,2,2,1,1,4,2,3,2,3,2,1,1,1,1,2,2,4,3,2,2,2,2,2,2,2,2,6,5,1,2,5,2,1,1,5,2,2,2,3,2,2,2,6,2,2,2,3,2,3,3,2,2,5,4,4,5,4,4,4,5,4,3,4,5,4,4,5,5,1,2,2,2,2,2,2,1,2,2,2,2,1,2,2,2,5,6,5,4,4,3,3,2,2,2,4,3,3,2,2,3,2,3,2,2,3,4,1,4,4,4,5,4,4,4,5,4,3,2,4,3,1,2,4,2,2,3,4,3,4,2,3,2,4,1,3,2,3,4,4,4,4,2,2,4,3,3,2,2
Chile,1983,2,1,1,7,1.7,50,5,2,1,0,1,NA,1,2,36.8,36.8,36.8,33.44999695,-70.66670227,59,2,10:07:21,2,1,1,1,NA,2,2,4,1,6,4,4,4,1,NA,2,8,1,NA,NA,1,1,NA,2,Doctorado,NA,NA,NA,NA,10,NA,NA,NA,NA,2,5,5,5,4,5,5,4,5,4,1,5,5,2,3,3,1,1,1,1,2,1,1,3,5,1,1,4,3,3,3,4,2,4,2,4,4,4,4,4,4,1,1,1,4,3,4,3,3,2,6,1,6,2,3,6,1,5,2,4,1,1,6,2,1,1,2,3,1,2,2,2,1,2,2,2,1,1,2,3,2,1,2,4,4,4,4,4,5,2,4,4,1,1,2,1,1,2,2,1,5,1,1,1,1,2,1,1,1,2,4,1,2,3,2,4,4,4,3,5,1,5,2,4,4,2,2,2,4,4,2,5,3,3,5,4,1,4,2,4,2,2,2,2,4,4,3,4,3,4,4,3,1,3,2,2,4,4,4,1,2,2,4,4,4,3,4,4,4,3,3,4,2,3,4,3,3,4,1
Poland,1983,2,1,1,7,1.78,62,3,1,0,5,2,NA,1,2,36.9,37.3,37.1,53.6000061,19.56669617,63,7,10:46:45,9,1,4,2,2,4,4,4,1,4,3,2,2,2,1,2,8,6,2,8,2,1,NA,1,NA,NA,NA,NA,NA,NA,NA,NA,NA,NA,1,1,5,4,4,2,1,1,1,3,2,1,4,4,3,4,3,3,3,2,3,3,2,4,4,3,4,2,2,3,3,2,5,3,2,3,4,4,4,4,4,1,2,1,1,1,4,6,7,5,5,7,6,7,6,7,2,1,7,6,6,7,4,6,2,3,3,5,2,4,3,5,4,3,1,1,5,3,3,5,6,3,2,5,4,4,4,4,4,3,4,4,6,6,6,6,6,6,6,2,1,3,2,2,4,4,2,2,2,3,2,1,1,3,2,5,7,5,2,5,7,1,1,4,2,4,2,4,1,2,4,4,4,1,1,4,4,3,4,4,2,4,4,5,3,5,3,4,3,3,4,2,1,5,3,2,4,4,3,3,2,4,4,4,3,2,1,2,4,4,3,3,4,4,4,3,3,1,4
Oslo,1984,2,1,1,7,1.68,73,4,2,0,0,2,NA,1,2,35.9,35.9,35.9,NA,NA,76,-6,10:45:55,4,1,1,2,1,4,1,3,1,3,2,5,2,1,NA,2,2,1,NA,NA,1,1,NA,1,NA,NA,NA,NA,NA,NA,NA,NA,NA,NA,3,2,3,3,5,3,3,3,2,4,4,4,3,4,3,2,2,2,2,3,4,3,2,3,4,2,2,3,3,1,4,1,4,5,1,5,2,4,2,4,2,2,2,2,2,4,4,2,5,3,3,7,5,1,2,2,5,2,7,2,5,1,4,2,2,6,2,3,1,2,2,2,2,1,2,3,5,6,2,3,5,1,6,3,3,4,2,2,3,4,3,2,4,3,2,2,3,2,2,1,1,1,1,1,1,1,1,1,1,2,1,1,2,1,2,4,6,6,1,4,3,5,3,3,3,5,2,2,1,2,3,4,4,3,2,4,4,2,2,2,4,4,3,2,4,5,3,3,4,4,4,4,2,2,2,1,1,1,1,2,4,2,1,4,2,1,2,4,4,4,4,3,1,2,4,3,2,3,3
Oslo,1984,2,1,1,7,1.66,52,3,2,0,0,2,NA,1,2,36,35.9,35.95,60.39149475,11.21330261,80,-7,19:28:21,4,1,3,3,3,4,4,5,NA,3,3,6,3,1,NA,2,5,1,NA,NA,2,1,NA,1,NA,NA,NA,NA,NA,NA,NA,NA,NA,NA,4,3,4,4,4,4,4,4,4,2,4,5,5,2,3,4,2,3,2,2,3,2,2,3,5,2,3,2,2,2,2,3,2,2,2,2,4,4,2,4,2,2,2,2,2,2,2,5,5,5,5,5,5,6,5,5,4,6,6,2,2,6,7,5,6,3,3,6,5,5,3,5,5,6,2,3,2,2,6,5,5,6,6,4,4,4,4,4,3,4,4,4,7,7,7,7,7,7,7,3,2,3,2,3,3,3,2,2,2,3,2,2,2,2,2,5,7,6,3,4,4,6,1,4,2,4,2,4,2,4,4,4,4,2,2,4,4,2,4,4,2,3,4,3,3,3,3,3,3,3,4,3,2,4,3,4,4,5,4,2,2,4,4,2,4,2,2,3,4,3,2,3,2,5,3,3,4,2,3
Kassel,1984,1,1,1,7,1.76,88,4,2,8,0,2,NA,1,2,36,36,36,51.03329468,10.71670532,NA,NA,11:04:33,1,1,1,1,NA,4,2,4,1,2,2,6,5,1,NA,1,NA,2,3,8,3,1,NA,1,NA,NA,NA,NA,NA,NA,NA,NA,NA,NA,2,2,2,3,2,3,2,2,3,3,4,2,3,3,4,3,2,2,2,3,3,2,3,4,3,3,3,4,4,2,5,1,1,1,1,4,1,4,1,4,1,1,2,1,4,1,1,3,3,4,4,4,3,2,4,5,5,3,5,3,2,3,4,3,3,5,2,5,4,4,4,4,3,3,5,4,3,3,2,6,6,4,5,3,3,3,2,3,2,4,2,2,3,5,5,5,4,4,3,2,4,1,5,1,1,2,4,3,2,1,2,1,3,5,5,4,5,2,1,3,2,1,4,2,2,4,1,4,1,1,3,4,1,4,3,4,2,2,1,1,1,4,3,3,4,1,4,3,2,2,3,2,3,3,2,1,5,1,3,2,2,3,5,2,2,1,1,3,4,1,3,1,3,1,1,1,1,3,1
Kassel,1984,2,1,1,3,1.7,78,4,2,2,0,2,NA,1,2,36,36.2,36.1,51.24960327,9.42489624,86,5,09:47:58,1,1,1,1,NA,4,4,2,2,8,4,4,4,1,NA,2,3,3,2,8,1,1,NA,1,NA,NA,NA,NA,NA,NA,NA,NA,NA,NA,2,2,4,2,2,4,3,4,2,3,3,1,2,2,4,3,3,3,3,3,2,4,2,4,3,2,2,4,4,2,5,4,2,5,4,4,5,5,4,2,4,2,2,4,2,2,4,2,2,1,3,2,2,2,3,2,1,2,2,3,3,4,3,2,1,3,5,2,3,5,4,3,4,4,3,3,5,3,3,4,2,3,3,5,4,3,4,5,5,5,5,5,3,4,3,3,3,3,4,2,2,2,2,2,2,4,4,2,4,4,3,2,2,4,3,3,4,2,2,4,5,5,2,2,4,5,4,2,2,3,3,4,4,4,1,4,3,2,2,2,2,4,4,5,4,3,3,3,3,3,2,2,3,2,2,1,2,2,4,1,3,4,2,4,4,2,2,5,5,4,3,3,3,4,3,4,3,4,2
Chile,1984,1,1,1,7,1.84,105,4,2,1,2,1,NA,1,2,36,36.3,36.15,33.44999695,-70.66670227,61,6,11:11:44,2,1,1,2,2,4,1,3,1,4,1,8,5,1,NA,1,NA,5,1,8,1,1,NA,2,Autos,NA,NA,NA,NA,5,NA,NA,NA,NA,2,3,5,3,4,3,1,4,3,2,5,2,5,2,3,3,1,2,3,1,2,2,2,4,4,2,3,2,3,2,5,2,3,2,5,5,4,3,3,5,3,2,1,3,3,2,3,1,1,1,1,4,1,1,1,3,1,1,1,1,1,1,2,5,1,6,6,1,4,6,4,2,4,5,7,2,6,4,3,7,7,7,7,3,4,4,5,5,3,2,3,4,6,7,6,4,6,6,7,1,5,1,5,1,1,1,5,5,1,3,1,1,5,5,5,2,2,1,2,2,3,2,3,3,5,1,1,5,3,1,1,5,5,5,5,5,1,5,3,1,1,1,5,5,5,1,1,3,3,5,1,1,3,3,4,1,1,5,5,1,1,5,5,5,5,1,5,3,5,1,3,3,5,2,1,1,1,4,1
Chile,1984,1,1,1,3,1.73,82,4,2,1,1,2,0,1,2,36.3,36.2,36.25,33.44999695,-70.66670227,79,13,10:46:02,2,1,2,1,NA,4,4,4,1,8,4,8,8,1,NA,2,8,5,8,8,2,1,NA,2,Banda Musical,Trabajo 1,Trabajo 2,Curso Colegio,Club Toby,5,10,4,15,4,2,2,5,2,1,3,2,5,4,4,5,3,5,2,4,5,2,2,2,2,2,3,3,4,5,1,3,5,4,4,4,1,3,5,4,5,4,4,4,5,4,4,4,3,2,3,4,4,4,2,2,3,6,4,2,5,2,5,4,2,3,2,4,2,2,2,2,2,2,2,2,2,2,6,2,2,5,2,2,5,5,2,3,5,5,5,5,3,3,3,4,4,6,7,7,7,7,7,7,1,2,3,1,2,2,3,2,1,1,2,3,3,1,3,2,4,4,6,3,4,5,4,2,4,4,4,2,2,2,3,3,4,3,5,4,5,5,3,4,3,3,4,5,3,4,3,3,4,4,4,4,4,2,2,3,2,3,5,2,5,1,2,2,4,2,1,1,3,2,1,1,3,3,2,2,2,3,2,2
Poland,1984,2,1,1,6,1.71,60,5,2,38,14,2,NA,1,2,36.3,36.3,36.3,51.75,19.46670532,86,2,10:08:58,9,1,1,3,3,4,4,3,1,3,3,5,3,1,NA,2,6,6,1,1,1,1,NA,2,angielski,przedszkole,NA,NA,NA,2,3,NA,NA,NA,4,2,4,4,5,4,4,4,2,2,4,3,4,2,3,3,3,4,5,4,2,4,4,2,4,4,1,2,3,4,4,2,1,4,2,2,4,4,4,2,2,1,1,1,4,1,3,2,1,1,2,2,2,1,2,1,2,7,5,2,2,2,6,1,1,2,3,2,2,2,1,1,2,2,3,2,5,2,1,3,2,2,5,5,5,4,5,5,3,2,4,3,3,4,3,3,4,3,2,2,2,1,2,1,2,4,1,3,1,1,3,2,1,3,1,4,6,6,1,6,3,3,1,1,3,5,4,3,1,1,5,4,1,1,2,2,2,1,1,1,1,4,4,3,2,4,3,3,2,2,4,2,2,4,2,1,3,4,3,1,2,2,2,4,4,1,1,3,2,4,3,3,2,2,3,4,3,5,3
METU,1984,2,1,2,6,1.6,50,5,2,0,0,2,NA,1,2,36.5,36.4,36.45,39.91169739,32.84030151,53,4,10:36:57,3,2,3,1,NA,4,4,5,NA,3,2,6,6,1,NA,2,5,3,1,8,1,1,NA,1,NA,NA,NA,NA,NA,NA,NA,NA,NA,NA,1,5,4,1,1,1,3,1,1,1,4,1,1,4,3,3,3,1,1,3,1,4,1,4,5,2,2,2,2,2,1,4,1,1,2,4,4,4,4,4,4,1,1,1,1,1,4,5,5,5,5,7,7,5,5,7,1,7,5,1,1,1,7,1,1,1,1,1,1,1,1,1,1,1,1,1,1,1,1,3,1,1,4,5,4,5,5,5,5,5,5,2,7,5,4,4,4,5,5,1,1,1,1,1,1,1,1,1,1,1,1,1,1,1,1,5,7,6,1,6,6,1,1,1,2,4,5,5,5,2,5,1,1,1,1,1,5,1,1,1,1,1,2,5,5,3,3,5,4,4,4,4,1,1,1,4,4,5,3,2,1,4,1,5,4,5,1,5,1,5,5,5,1,5,5,3,5,2,2
METU,1984,1,1,1,7,1.77,60,2,2,0,0,1,20,1,2,36.6,36.3,36.45,39.91169739,32.84030151,64,6,11:08:39,3,2,4,1,NA,4,4,5,NA,8,8,8,1,1,NA,2,8,3,8,8,1,1,NA,1,NA,NA,NA,NA,NA,NA,NA,NA,NA,NA,3,3,4,5,2,4,3,3,4,3,4,4,3,3,3,3,2,3,3,3,3,3,3,3,4,2,3,4,4,4,4,4,3,4,4,4,4,4,4,4,4,1,2,2,4,4,4,2,2,2,2,6,1,4,3,2,2,2,2,2,2,1,2,1,2,6,1,2,2,2,2,1,2,1,1,2,3,2,1,3,5,1,2,5,4,4,4,4,4,2,4,4,4,5,5,5,4,4,4,2,2,1,2,2,3,2,2,2,2,2,2,1,2,2,1,4,6,2,1,1,1,6,4,2,3,5,3,3,4,4,3,4,4,2,3,4,4,3,2,2,3,4,2,2,4,4,4,4,4,3,4,4,2,2,2,2,2,4,3,2,2,3,3,4,2,3,2,4,3,3,4,4,2,4,3,3,3,2,2
Oxford,1984,2,1,1,7,1.6764,56.81818182,5,1,0,0,2,NA,2,2,36.3,36.7,36.5,51.75,-1.25,74,2.777777778,07:48:42,5,1,2,1,NA,4,4,5,NA,2,1,6,6,1,NA,2,8,1,NA,NA,3,1,NA,2,Squash Club,NA,NA,NA,NA,5,NA,NA,NA,NA,4,5,5,5,5,5,4,3,3,5,4,5,5,2,2,3,3,2,2,3,3,2,2,3,4,2,3,4,5,3,5,3,3,4,3,4,4,4,4,4,4,2,2,3,4,3,4,4,4,4,5,4,4,4,5,3,2,2,5,4,2,2,3,4,1,5,3,5,3,3,3,3,3,4,4,3,4,4,4,3,5,3,3,5,5,5,5,5,5,4,5,5,4,3,4,3,3,3,3,2,2,1,2,1,2,2,1,1,2,1,2,1,2,2,2,4,5,5,4,4,4,4,3,3,4,4,2,2,2,3,3,4,2,2,3,3,3,3,4,4,3,2,4,4,4,4,5,4,4,4,3,4,2,1,1,1,3,3,4,4,2,3,3,4,2,1,4,3,2,2,2,4,2,3,3,4,3,2,2
Poland,1984,2,1,1,7,1.69,70,3,2,1,0,2,NA,1,2,36.4,36.6,36.5,53.12710571,18.02000427,77,-5,10:25:06,9,1,1,2,2,1,1,4,2,3,2,3,2,1,NA,2,6,6,1,5,1,1,NA,1,NA,NA,NA,NA,NA,NA,NA,NA,NA,NA,4,4,4,4,4,4,3,3,3,4,4,3,3,4,3,3,4,4,4,4,3,4,4,2,4,4,2,4,4,4,4,5,4,4,3,4,4,4,4,4,4,2,2,2,3,2,4,4,2,2,3,4,2,5,2,5,2,6,4,2,2,2,5,2,5,2,2,6,2,2,2,2,2,2,3,2,2,3,5,2,6,2,3,4,4,5,5,5,5,5,5,5,2,4,5,4,2,2,2,3,2,2,2,2,4,4,2,3,2,2,2,2,4,3,2,5,5,5,3,3,3,3,4,3,3,4,3,4,2,3,3,3,4,2,3,4,3,2,3,4,2,4,4,4,4,3,3,4,3,4,4,3,2,3,2,2,2,4,3,4,3,3,2,3,2,2,2,3,4,4,4,3,4,2,2,3,3,2,3
Oxford,1984,1,1,1,6,1.84,70,2,2,1,0,2,NA,1,2,36.2,36.9,36.55,51.75,-1.25,71,1.666666667,08:55:53,5,1,1,1,NA,4,1,4,1,4,1,3,2,1,NA,2,8,1,NA,NA,1,1,NA,1,NA,NA,NA,NA,NA,NA,NA,NA,NA,NA,3,2,3,5,3,4,2,2,3,3,2,2,3,4,4,5,4,4,4,4,4,4,4,4,4,3,4,1,1,1,1,1,1,1,1,1,1,1,1,1,1,1,1,1,1,1,1,2,2,2,2,3,3,1,4,2,5,2,2,3,1,5,2,5,3,5,5,5,5,5,5,5,5,5,4,5,6,5,5,5,5,4,5,4,4,4,4,3,3,3,3,3,6,4,4,3,3,4,3,3,4,2,4,4,3,4,4,4,4,3,2,2,2,4,3,2,2,1,2,1,1,1,3,3,3,4,2,3,2,2,3,5,4,4,4,4,3,2,2,4,1,1,4,5,2,2,1,3,4,3,4,2,3,3,3,1,1,3,2,4,3,3,2,2,2,1,2,3,4,2,2,2,4,4,2,3,3,2,3
METU,1984,2,1,1,2,1.62,62,4,2,0,0,1,5,1,2,36.7,36.4,36.55,39.91169739,32.84030151,56,4,10:24:09,3,2,1,2,2,4,4,2,2,6,4,5,5,1,NA,2,5,3,1,8,4,2,8,2,Alternatif Anne,NA,NA,NA,NA,7,NA,NA,NA,NA,3,4,5,4,4,2,4,4,4,4,5,4,3,3,3,3,2,2,2,3,3,2,2,3,5,2,3,2,3,3,3,4,3,2,2,2,4,2,3,4,4,2,2,2,2,1,4,5,2,2,5,5,5,5,2,5,1,6,2,2,4,1,6,5,2,2,2,1,1,1,2,2,1,2,1,1,1,1,2,1,1,2,2,5,5,5,5,5,3,2,5,3,6,6,6,6,6,5,6,2,2,3,2,2,3,2,2,2,3,2,1,2,2,2,3,5,7,7,1,6,6,2,1,2,5,5,3,4,3,2,4,4,4,2,1,4,5,2,5,5,4,4,4,2,4,4,4,5,4,4,5,4,2,3,1,3,5,4,4,3,2,3,3,4,3,4,2,5,4,4,3,4,2,4,5,3,3,3,3
METU,1984,2,1,1,7,1.64,65,3,2,2,0,2,NA,1,2,36.6,36.6,36.6,NA,NA,55,0,11:07:08,3,2,1,3,3,4,4,4,4,8,8,8,8,1,NA,1,NA,3,1,8,4,1,NA,2,ODT? T¨¹rk Halk Blimi Toplulu?u,NA,NA,NA,NA,7,NA,NA,NA,NA,3,4,4,4,3,4,2,1,2,4,3,4,4,2,4,3,3,3,2,2,3,3,3,4,3,3,2,3,3,3,3,2,2,2,2,3,4,2,3,3,3,2,1,1,1,1,3,4,2,2,4,5,5,5,3,3,2,3,2,4,2,2,5,1,2,2,2,4,4,3,2,2,4,3,2,2,2,2,2,2,3,2,2,4,5,4,5,5,3,3,3,3,7,5,5,5,5,6,6,2,2,1,2,2,1,3,2,2,2,2,2,3,2,2,2,5,7,5,2,6,5,2,3,2,3,4,3,2,4,4,2,4,4,3,4,4,3,4,2,3,3,3,2,3,4,3,4,5,4,3,4,4,1,2,2,2,2,3,3,2,2,3,4,3,3,4,3,4,3,4,4,4,2,3,4,2,2,2,4
Chile,1984,1,1,1,7,1.65,78,3,2,9,0,1,NA,1,2,36.8,36.7,36.75,33.44999695,-70.66670227,64,10,11:11:43,2,1,2,1,NA,4,4,4,1,1,NA,8,8,1,NA,1,NA,5,1,8,1,1,NA,2,Trabajo,Colegio,NA,NA,NA,7,4,NA,NA,NA,4,4,3,5,3,4,3,3,4,3,4,5,5,3,3,3,2,3,2,2,3,2,3,2,4,2,3,4,4,3,4,3,3,3,2,3,4,2,4,4,4,2,2,2,2,2,4,2,2,2,6,2,6,2,2,2,2,3,2,2,2,2,4,2,2,2,2,4,2,2,2,2,2,2,2,2,2,2,3,6,6,2,2,5,5,5,5,5,4,2,5,5,4,4,4,3,3,2,3,2,2,2,3,2,2,1,2,3,2,2,1,2,2,3,2,3,3,3,3,3,3,3,2,4,2,4,2,2,2,4,2,5,4,4,2,4,4,2,2,4,3,4,4,2,4,3,4,4,4,3,4,3,2,2,3,2,4,4,3,4,2,2,4,3,3,2,3,4,3,2,2,4,4,4,4,4,4,3,2
Poland,1984,2,1,1,7,1.62,52,4,1,2,2,1,4,1,2,37,37.2,37.1,52.25,21,83,1,10:29:21,9,1,1,1,NA,4,4,2,2,6,1,6,3,2,1,2,8,3,1,8,1,1,NA,1,NA,NA,NA,NA,NA,NA,NA,NA,NA,NA,4,3,3,5,5,5,2,3,3,5,5,5,5,2,2,3,5,5,5,4,2,5,4,3,4,4,2,1,1,1,1,1,2,1,1,1,2,2,2,2,2,1,1,1,2,1,2,2,1,1,2,4,4,2,2,2,2,6,2,2,2,2,4,2,2,2,2,2,2,3,2,2,2,2,2,2,2,2,2,4,4,2,2,5,5,5,5,5,5,5,5,5,4,5,5,5,4,4,4,2,2,2,2,2,4,4,2,3,2,2,4,2,1,2,1,4,6,5,4,3,3,2,2,3,2,4,4,2,2,2,4,2,2,2,2,2,2,2,4,4,2,4,5,5,4,4,3,4,4,4,4,4,2,2,3,1,1,5,1,2,2,3,2,3,3,3,2,4,4,3,3,3,4,4,4,4,4,2,4
Zurich,1984,2,2,2,7,1.65,65,4,3,3,3,2,NA,1,2,37,38,37.5,NA,NA,78,9,14:10:59,1,1,5,8,8,3,2,2,4,3,1,1,1,1,NA,1,NA,1,NA,NA,1,1,NA,1,NA,NA,NA,NA,NA,NA,NA,NA,NA,NA,5,1,1,1,1,5,1,5,1,1,5,1,1,5,5,5,1,1,1,1,5,1,1,5,5,1,5,5,5,5,5,5,5,5,5,5,5,5,5,5,5,5,5,5,5,5,5,2,2,2,1,2,2,1,1,7,2,6,3,3,2,1,2,2,1,3,6,2,7,2,1,1,6,6,7,5,6,5,2,6,7,7,6,5,5,5,5,5,5,5,5,5,4,7,7,7,7,7,7,5,5,5,1,5,5,5,5,5,5,5,1,5,1,5,1,1,1,7,8,8,8,8,2,2,2,2,2,2,2,2,2,5,5,5,5,5,5,5,5,5,5,5,5,5,5,5,5,5,5,5,5,5,5,5,5,5,5,5,5,5,5,5,5,5,5,5,5,2,2,2,2,2,2,2,2,2,3,3,3
Oxford,1985,1,1,2,5,1.75,63,3,2,1,0,2,NA,1,2,35.2,36.1,35.65,51.75,-1.25,89,-1.666666667,08:08:50,5,1,2,1,NA,4,4,5,NA,2,1,3,3,1,NA,2,5,1,NA,NA,3,1,NA,2,Choir,NA,NA,NA,NA,5,NA,NA,NA,NA,3,3,2,3,3,4,3,2,3,4,3,2,2,3,3,4,3,3,3,2,3,3,3,3,4,3,3,4,3,1,4,4,1,3,3,4,3,2,4,3,4,3,4,2,4,3,3,5,3,2,3,5,5,3,5,3,2,5,3,3,5,3,2,3,5,5,3,5,1,1,4,5,3,4,2,3,3,2,2,3,3,3,4,4,3,3,3,4,3,3,3,3,5,5,5,5,5,5,5,2,3,2,3,1,2,2,3,4,2,1,4,1,3,3,5,4,6,5,4,3,3,5,3,3,4,4,2,3,2,3,4,5,3,3,4,4,4,2,4,4,2,3,2,4,4,4,4,4,4,4,5,4,2,2,2,2,3,3,2,3,2,3,2,2,2,4,2,4,4,4,4,4,3,5,3,2,2,2,1
Oxford,1985,1,1,1,7,1.86,78,4,2,0,0.5,2,NA,2,2,35.3,36.2,35.75,51.75,-1.25,86,0,08:56:21,5,1,1,1,NA,4,1,4,1,1,NA,1,1,1,NA,1,NA,3,1,7,1,1,NA,1,NA,NA,NA,NA,NA,NA,NA,NA,NA,NA,3,4,1,3,2,3,2,2,1,4,2,3,4,2,2,4,3,3,3,2,3,2,2,2,4,1,2,1,1,1,3,2,1,1,1,3,2,2,1,2,1,1,1,1,1,2,1,5,2,2,2,7,3,2,2,2,2,2,2,2,4,5,1,5,2,3,3,3,3,2,2,2,2,2,3,2,4,2,2,3,3,2,4,5,5,4,5,4,2,1,3,1,5,3,4,4,5,5,5,2,3,1,4,1,1,2,2,2,2,2,1,4,2,4,2,4,6,5,3,3,2,4,2,4,2,5,3,4,2,3,3,5,4,2,4,5,5,1,3,4,2,3,5,2,4,4,3,4,2,3,3,2,2,4,3,2,1,2,3,3,1,2,2,2,2,1,2,3,3,2,2,1,4,2,2,4,3,2,4
Bamberg,1985,1,1,1,7,1.87,84,5,2,0,1,2,NA,1,2,36.08,36.03,36.055,49.44030762,11.0809021,79,9,09:38:21,1,1,1,2,2,4,4,2,2,6,4,5,3,2,1,2,1,3,8,5,1,2,1,1,NA,NA,NA,NA,NA,NA,NA,NA,NA,NA,4,1,4,1,1,4,1,4,1,2,3,1,3,2,5,5,3,1,3,4,5,4,4,5,4,4,5,1,2,4,2,3,2,2,2,2,4,4,4,3,4,1,1,1,1,1,4,5,2,1,2,1,2,1,2,1,1,2,2,2,2,3,1,1,1,2,1,4,2,5,1,2,4,6,1,1,1,1,1,2,2,2,1,5,5,5,5,5,5,4,5,5,7,7,6,6,6,6,7,4,3,1,4,3,4,4,2,2,4,4,2,2,2,3,2,5,6,2,2,1,1,5,2,4,3,3,1,1,2,4,2,5,4,1,4,4,2,4,1,1,2,4,5,5,4,2,2,4,3,3,2,2,2,2,2,1,5,4,2,4,2,3,4,3,4,1,4,5,1,1,1,2,4,1,1,1,1,2,1
METU,1985,2,1,1,6,1.65,50,3,2,1,0,1,25,1,2,36.3,35.9,36.1,39.91169739,32.84030151,74,12,11:15:03,3,2,4,1,NA,4,4,4,2,4,2,5,3,1,NA,1,NA,3,1,5,1,1,NA,1,NA,NA,NA,NA,NA,NA,NA,NA,NA,NA,3,3,4,4,2,4,2,2,2,2,5,3,4,2,2,3,2,2,2,2,3,2,2,2,3,3,3,1,1,1,1,3,1,1,1,1,2,2,2,2,2,1,1,1,1,1,2,5,1,1,1,4,3,1,1,2,1,2,1,1,1,1,5,1,1,7,2,1,1,1,7,2,2,1,1,1,2,1,1,1,1,1,2,5,3,5,4,1,4,1,3,1,5,5,4,4,5,5,5,1,1,1,1,1,2,2,1,2,1,1,1,1,3,3,2,4,4,4,3,3,1,1,2,2,2,2,5,4,2,2,2,4,2,1,3,1,1,1,5,4,4,4,4,3,4,5,5,4,3,3,4,3,3,4,4,2,4,4,2,3,2,3,2,5,4,2,1,4,4,5,3,4,1,3,4,1,1,5,1
Poland,1985,1,1,1,7,1.72,79,4,2,8,0,2,NA,1,2,36.2,36.1,36.15,52.23330688,21.01669312,70,1,18:33:19,9,1,1,3,3,4,4,4,2,8,3,3,2,1,NA,2,8,6,8,8,2,1,NA,1,NA,NA,NA,NA,NA,NA,NA,NA,NA,NA,3,3,4,3,3,4,2,2,2,3,4,2,4,2,5,4,3,4,4,4,3,3,4,5,4,4,3,4,4,3,4,4,2,2,2,4,4,4,4,4,4,2,2,2,4,4,4,2,2,2,2,6,5,2,5,2,2,6,2,2,2,2,5,6,2,2,1,6,2,2,2,2,2,2,1,1,1,1,2,6,6,2,1,5,5,5,5,5,5,5,5,3,3,2,2,3,4,2,2,2,2,2,2,2,2,1,2,2,2,2,1,2,1,3,1,4,5,5,2,4,4,4,3,2,3,4,4,2,2,4,2,2,2,2,4,3,3,4,4,3,2,4,3,2,3,4,2,4,4,4,4,4,2,2,2,1,1,4,2,2,2,4,4,4,4,2,3,4,4,2,3,1,4,2,2,4,2,2,2
Oslo,1985,1,1,1,1,1.76,NA,5,2,NA,NA,2,NA,1,2,36.2,36.3,36.25,59.26750183,10.40759277,92,1,12:43:06,4,1,1,5,5,4,4,4,1,5,5,1,1,2,2,1,NA,3,1,8,2,1,NA,1,NA,NA,NA,NA,NA,NA,NA,NA,NA,NA,5,5,4,4,5,2,2,5,4,4,4,5,4,1,2,3,2,1,1,2,3,2,2,3,4,1,2,2,2,1,1,2,1,2,2,3,3,3,3,2,2,1,1,1,1,1,3,2,2,2,2,4,2,2,3,6,1,2,2,4,2,2,3,1,2,2,2,4,2,2,2,2,2,1,4,6,2,1,1,2,2,2,2,5,5,5,5,5,3,2,2,2,3,2,2,2,3,3,4,5,2,1,2,2,1,1,3,2,1,1,3,4,2,3,1,5,5,6,2,3,1,2,4,2,3,4,2,3,2,1,1,4,2,2,1,3,4,2,3,4,3,3,3,2,4,4,3,3,3,3,3,2,2,2,2,1,2,4,4,2,3,2,2,2,2,2,3,3,4,2,3,2,4,2,2,3,2,4,2
VCU,1985,2,1,2,6,1.6002,44.54545455,3,2,0,0,1,2,1,2,36,36.5,36.25,37.55220032,-77.45819855,94,13.33333333,10:20:51,5,1,3,1,NA,4,4,5,NA,5,2,6,6,1,NA,2,5,3,1,6,3,2,3,1,NA,NA,NA,NA,NA,NA,NA,NA,NA,NA,4,4,4,5,4,3,3,3,4,5,4,4,4,3,2,4,3,2,2,2,2,2,2,2,4,2,2,2,2,2,3,2,2,2,2,3,3,2,2,3,2,1,1,1,2,2,2,2,2,2,2,2,2,2,2,2,2,2,2,2,2,2,3,2,2,2,2,2,2,2,2,2,2,2,2,2,2,1,2,2,2,2,3,4,4,4,4,4,4,4,4,3,4,4,4,4,4,3,3,2,2,2,2,2,2,3,2,2,2,2,3,2,2,2,1,5,8,6,6,5,6,7,1,1,1,5,5,5,2,3,5,1,1,1,1,2,4,1,4,2,3,3,4,2,4,4,4,4,4,4,4,4,2,2,3,4,4,4,3,3,2,4,2,4,3,2,2,3,4,2,2,4,2,4,3,4,3,2,2
Kassel,1985,2,1,2,7,1.6,56,3,2,0,0,2,NA,1,2,36.1,36.4,36.25,51.31669617,9.5,71,1,10:09:28,1,1,2,1,NA,4,2,4,1,6,3,6,4,1,NA,2,8,1,NA,NA,3,1,NA,2,Tanzgruppe,Lerngruppe Uni,Uni Sportgruppe,NA,NA,3,2,2,NA,NA,4,4,3,5,5,4,3,2,3,3,4,5,4,1,3,4,3,2,2,2,2,2,1,2,4,3,2,2,4,4,4,2,1,3,1,4,3,2,1,3,2,1,4,3,3,1,4,3,5,2,2,5,4,2,2,7,4,7,2,1,1,1,1,1,5,2,2,6,3,3,3,1,2,3,2,4,4,2,3,7,6,3,3,4,2,4,4,2,1,3,5,4,2,2,4,2,2,2,1,1,2,1,2,2,2,2,1,1,2,1,2,2,2,2,1,4,5,6,3,4,4,4,3,2,2,4,1,3,2,2,3,4,3,1,2,4,3,2,3,4,2,4,2,3,4,4,4,3,2,3,3,1,2,5,3,2,4,3,3,3,2,1,3,2,2,2,2,2,4,2,1,5,4,4,4,4,3,2,2
VCU,1985,2,2,1,7,1.5748,72.72727273,4,2,4,0,2,NA,1,2,36.33333333,36.44444444,36.38888889,39.18569946,-78.16329956,53,8.888888889,10:09:38,5,1,1,1,NA,4,4,4,4,4,2,6,2,1,NA,2,1,3,5,5,1,1,NA,1,NA,NA,NA,NA,NA,NA,NA,NA,NA,NA,4,4,4,2,3,2,2,3,3,1,4,5,5,2,2,4,2,2,2,2,2,2,3,2,4,3,3,1,5,1,4,2,1,1,1,4,2,1,1,2,1,1,1,1,1,1,1,1,1,1,1,1,1,1,1,1,1,1,1,1,1,1,1,1,1,1,1,1,1,1,1,7,1,1,1,2,1,1,1,1,1,1,1,5,4,4,4,4,4,4,3,3,2,3,3,3,3,2,2,1,1,1,1,1,1,1,1,1,1,1,2,3,2,1,1,4,5,3,2,2,2,2,2,2,4,4,4,4,3,2,3,2,3,2,2,3,3,2,3,4,3,2,4,4,3,3,3,3,3,4,4,4,1,1,1,2,3,2,3,2,2,3,2,4,2,4,1,5,4,4,3,3,3,4,2,2,3,3,2
Poland,1985,2,1,1,7,1.6,45,4,2,8,NA,2,NA,1,2,36.5,36.3,36.4,52.23330688,21.01669312,83,1,11:44:14,9,1,1,1,NA,3,3,4,2,8,4,5,5,1,NA,2,4,3,1,1,3,1,NA,2,klub filmowy,NA,NA,NA,NA,3,NA,NA,NA,NA,3,5,5,4,4,5,2,4,4,3,5,5,5,4,3,3,4,4,4,3,3,3,3,3,4,5,3,2,1,1,2,1,2,3,2,2,4,4,4,1,4,1,1,1,1,2,3,2,3,4,5,3,5,4,5,4,2,5,4,1,2,2,4,4,4,4,1,6,2,4,3,4,4,3,2,3,6,2,4,6,6,6,2,5,5,5,5,5,4,4,4,4,6,4,2,2,4,4,4,3,2,2,2,3,2,1,2,3,1,2,2,2,1,4,2,5,7,5,5,5,3,2,2,4,2,4,4,3,4,2,2,4,3,2,2,4,3,2,4,4,3,4,4,4,4,4,4,4,4,2,4,4,2,2,1,1,3,3,2,2,2,4,4,4,4,4,3,4,4,4,4,4,3,4,4,4,4,3,4
Poland,1985,2,1,1,7,1.68,67,4,2,9,1,2,NA,1,2,36.61,36.28,36.445,52.25,21,70,4,12:05:17,9,1,1,2,2,2,2,4,4,4,2,7,4,1,NA,2,8,6,1,2,2,1,NA,1,NA,NA,NA,NA,NA,NA,NA,NA,NA,NA,3,4,4,4,4,4,2,1,3,3,3,4,4,2,3,3,4,4,4,4,3,4,3,3,4,4,3,4,4,4,4,4,2,2,4,4,5,4,5,4,5,1,2,4,4,3,5,2,1,1,2,2,3,1,1,1,2,7,2,2,1,2,6,5,1,1,1,2,1,1,2,1,1,2,2,2,6,2,2,2,2,1,2,5,5,5,5,5,5,4,5,5,4,4,3,4,5,3,3,3,2,4,2,2,3,2,2,1,2,1,3,2,1,2,2,4,7,5,3,3,3,2,1,4,2,4,2,4,2,2,4,4,2,2,3,4,4,2,4,2,3,4,4,4,4,4,3,4,2,3,4,2,1,4,2,2,2,4,2,1,2,2,2,4,2,2,4,4,2,5,4,2,2,4,5,4,2,4,2
Poland,1985,2,1,2,6,1.58,42,4,2,7,2,1,NA,1,2,36.4,36.5,36.45,54.5,18.55000305,85,0,10:45:35,9,1,4,1,NA,4,4,5,1,3,2,5,4,1,NA,2,8,6,8,8,5,1,NA,2,pracownicy,znajomi,rozina,przyjaciele,NA,6,5,10,4,NA,4,2,5,5,5,5,1,5,5,5,5,5,2,3,3,3,4,4,5,4,2,4,4,3,5,4,1,2,2,2,2,2,1,2,2,2,4,2,3,3,1,1,2,1,2,1,2,5,2,7,1,6,4,2,2,1,1,7,5,2,1,1,1,1,1,5,1,7,2,5,5,7,3,2,1,2,1,1,5,7,7,2,3,5,4,5,5,5,5,5,5,4,1,1,1,1,1,1,1,2,4,1,2,1,2,2,2,2,1,2,1,1,4,5,3,3,4,4,2,3,5,5,2,4,4,4,2,2,2,2,4,4,2,2,4,4,2,2,2,4,2,3,4,4,4,4,3,4,4,4,3,3,4,2,4,2,2,5,4,2,2,4,2,2,4,2,3,3,4,3,3,3,4,5,2,4,2,4,2
METU,1985,2,1,1,7,1.69,60,3,2,NA,NA,2,NA,1,2,36.5,36.6,36.55,39.92300415,32.83779907,60,9,10:47:34,3,2,1,1,NA,4,2,4,2,5,4,7,7,1,NA,1,NA,3,1,8,1,1,NA,1,NA,NA,NA,NA,NA,NA,NA,NA,NA,NA,2,5,3,5,2,2,3,5,4,1,1,4,5,3,4,4,3,4,3,4,4,4,3,4,4,4,4,1,3,2,3,1,1,1,1,4,5,3,3,4,2,1,1,1,1,1,4,7,2,2,2,6,2,2,2,6,2,6,2,1,1,1,7,2,5,6,3,2,5,2,2,2,3,2,6,6,5,3,2,2,3,2,4,4,4,5,5,5,2,2,2,2,5,3,3,3,3,2,2,2,3,1,3,3,3,2,1,5,3,4,1,1,4,5,2,5,5,5,8,6,7,7,3,2,3,5,2,2,4,4,2,1,1,2,3,1,1,2,4,4,2,2,3,5,3,1,1,4,5,3,2,4,2,2,2,2,4,5,2,4,2,3,3,3,3,3,3,4,3,4,4,5,2,4,4,5,2,5,3
Chile,1985,2,1,1,6,1.68,60,2,1,0,1,2,0,1,2,36.6,36.6,36.6,33.44999695,-70.66670227,61,10,10:41:28,2,1,1,1,NA,4,4,4,1,8,5,7,6,1,NA,2,8,1,NA,NA,1,1,NA,2,Grupo de Estudio,Pol¨ªtico,NA,NA,NA,2,6,NA,NA,NA,3,3,5,4,3,4,4,3,4,4,4,4,5,2,3,3,3,3,2,2,2,3,3,2,2,2,2,1,1,1,1,2,2,1,4,2,4,4,4,3,1,1,1,1,2,1,4,5,3,1,2,2,7,2,2,5,3,6,2,2,2,3,5,6,1,2,2,2,1,1,2,1,2,2,2,2,3,1,2,2,5,1,2,5,5,5,5,5,4,3,5,5,5,7,6,5,6,5,6,2,1,2,1,1,2,2,2,2,1,1,1,2,1,1,3,5,6,6,4,5,5,3,2,4,4,4,2,4,2,2,2,5,4,1,4,4,2,2,2,4,3,3,5,4,4,5,4,4,4,4,4,4,1,2,1,4,4,4,1,4,2,2,2,4,2,2,1,4,3,2,2,4,2,4,5,4,3,2,2
METU,1985,2,1,1,4,1.67,63,4,2,2,0,2,NA,1,2,36.9,36.4,36.65,39.91169739,32.84030151,74,12,09:50:32,3,2,1,2,2,4,4,2,2,4,4,4,3,1,NA,1,NA,1,NA,NA,3,2,8,2,siyasi ?rg¨¹t,hobi grubu,NA,NA,NA,10,3,NA,NA,NA,3,5,3,5,4,3,2,1,3,4,4,4,4,2,3,2,2,2,2,2,3,2,2,2,3,2,2,1,1,1,1,2,1,2,1,3,5,5,5,4,5,1,1,1,1,3,5,3,2,2,2,3,5,2,3,3,3,2,2,2,4,3,5,2,2,2,2,2,2,2,2,2,2,2,2,2,2,2,2,2,2,2,3,4,4,4,4,4,4,4,4,4,7,7,7,7,1,6,6,2,2,1,2,3,1,3,2,2,1,2,1,1,2,2,1,4,6,5,2,4,2,1,4,2,5,5,1,2,2,2,2,5,5,1,4,4,3,4,2,4,2,4,4,2,3,4,4,3,2,3,4,3,2,3,3,2,4,5,3,3,2,4,3,4,4,4,2,5,3,5,5,5,2,5,4,5,5,2,3
Kassel,1985,1,3,1,2,1.86,96,3,2,0,16,1,15,1,2,36.7,36.6,36.65,51.28779602,9.470504761,65,5,10:44:47,1,1,4,1,NA,4,4,4,4,3,3,5,3,2,1,2,5,3,5,4,1,1,NA,1,NA,NA,NA,NA,NA,NA,NA,NA,NA,NA,3,2,3,2,2,3,2,4,2,4,4,2,4,3,3,4,3,3,3,2,2,3,3,4,4,2,3,3,4,2,4,2,1,4,2,4,4,3,2,3,2,1,2,1,2,3,2,5,4,4,5,3,5,5,6,6,2,4,6,1,3,3,5,5,4,5,3,3,2,2,1,1,1,1,3,3,5,5,1,7,6,1,5,4,4,5,5,4,4,4,4,4,7,6,6,6,6,6,6,2,2,1,2,4,4,2,2,1,2,4,3,2,2,4,2,5,6,5,3,5,5,5,4,4,4,4,1,1,4,5,1,4,4,5,4,5,3,4,2,3,1,4,4,4,3,4,4,3,3,3,4,2,2,2,4,1,2,3,3,4,2,3,5,1,3,2,3,4,4,3,4,2,2,1,2,2,2,4,1
Oslo,1985,2,1,1,3,1.64,60,5,2,NA,NA,2,NA,2,2,36.88,36.89,36.885,NA,NA,83,-12,10:37:50,4,1,1,1,NA,4,2,4,1,8,4,8,8,1,NA,1,NA,3,1,8,1,2,1,2,Fagforening,Verneombud,Ingen,Ingen,Ingen,7,2,0,0,0,4,3,5,3,2,3,5,5,3,2,5,3,5,4,3,3,2,2,2,2,2,2,2,3,3,1,3,1,1,1,1,1,1,4,1,4,4,4,4,4,2,2,4,2,4,2,4,5,3,5,2,6,5,1,3,3,6,2,6,2,6,3,7,1,1,2,1,7,1,1,2,5,2,2,2,2,2,1,3,2,2,1,5,5,5,5,5,5,5,2,5,5,7,7,7,7,7,7,7,5,4,3,5,5,3,5,4,1,3,5,1,1,3,1,1,3,3,6,4,2,5,2,1,2,2,4,4,4,3,2,4,2,2,1,2,4,4,4,2,4,4,4,4,1,5,5,5,3,3,5,4,3,2,2,4,4,1,5,2,1,4,1,1,4,2,3,2,4,4,4,4,4,2,3,4,3,4,2,3
METU,1985,2,1,1,6,1.64,54,4,2,0,0,1,20,1,2,36.7,37.2,36.95,39.91169739,32.84030151,71,7,10:27:15,3,2,1,1,NA,4,4,4,2,1,NA,5,4,1,NA,2,4,3,1,5,1,1,NA,1,NA,NA,NA,NA,NA,NA,NA,NA,NA,NA,2,2,4,3,2,3,3,4,2,2,3,2,4,3,3,3,4,3,3,3,3,3,3,4,5,2,3,2,2,2,2,4,2,2,2,2,4,4,4,4,3,2,2,2,4,3,4,6,6,3,5,3,7,3,3,4,5,6,5,3,2,7,7,7,5,3,3,5,5,3,3,3,5,3,3,5,3,2,5,3,3,5,5,5,4,5,4,3,5,3,4,4,3,4,3,3,4,4,3,2,2,1,2,2,2,4,4,1,2,2,2,2,2,2,2,4,6,4,2,4,2,3,2,2,4,4,2,2,2,2,2,4,4,2,2,4,4,2,2,2,2,4,4,4,2,2,2,2,2,2,2,2,2,2,2,2,4,4,2,2,4,2,2,4,4,4,2,4,2,4,4,4,2,4,2,4,2,4,4
Kassel,1986,2,1,1,7,1.63,57,2,2,20,0,2,NA,1,2,35.3,35.5,35.4,53.55000305,10,74,0,09:36:32,1,1,2,1,NA,4,1,4,1,3,1,5,3,1,NA,2,7,1,NA,NA,1,1,NA,2,Wohngemeinschaft,Lerngruppe,Sportgruppe,Unikollegen,Foodsharing,5,3,2,5,10,1,2,5,4,2,5,1,1,2,2,4,2,5,3,3,4,4,3,3,2,4,3,4,5,4,3,4,1,1,1,1,1,1,1,1,1,1,1,1,1,1,1,1,1,1,1,1,4,1,1,2,1,4,1,1,7,1,1,1,1,1,5,2,1,1,1,1,1,1,1,1,1,1,6,1,1,1,1,1,7,7,7,1,5,2,4,2,2,1,1,2,2,4,4,4,4,5,3,4,5,5,3,4,2,5,5,5,5,3,2,2,1,1,4,1,5,7,5,2,1,2,5,1,1,1,5,3,3,1,1,4,4,1,5,1,3,5,1,3,4,4,4,5,4,5,5,5,5,1,2,4,1,1,2,4,4,1,3,2,4,1,1,1,2,4,5,5,2,5,5,5,5,1,4,5,5,4,1,2
VCU,1986,1,1,2,6,1.6764,54.54545455,1,1,0,0,2,NA,1,2,35.77777778,35.72222222,35.75,37.40229797,-77.47389984,68,8.888888889,11:35:08,5,1,2,1,NA,4,2,5,NA,1,NA,1,1,1,NA,2,8,1,NA,NA,1,1,NA,1,NA,NA,NA,NA,NA,NA,NA,NA,NA,NA,3,4,5,2,4,4,3,2,4,1,4,4,2,5,4,4,2,2,1,3,3,3,2,4,5,2,3,1,2,1,2,1,1,1,3,1,2,2,1,1,1,1,1,1,2,1,2,4,4,5,5,5,5,2,5,5,5,4,6,6,2,1,2,4,2,1,1,1,1,7,1,1,1,1,1,1,1,1,1,1,2,1,4,4,3,4,5,5,4,4,4,4,5,6,6,5,5,4,4,1,2,5,2,1,2,1,2,3,1,1,3,1,1,3,1,1,2,2,1,2,2,2,4,5,5,3,1,1,5,4,2,5,4,3,5,4,1,5,2,3,2,5,4,3,4,5,5,5,4,3,3,3,1,1,2,1,2,3,2,4,2,3,3,3,3,4,4,4,3,4,5,3,3,4,3,3,3,2,1
Oxford,1986,2,1,1,7,1.7526,62,5,2,2,0,2,NA,1,2,35.7,35.9,35.8,51.75,-1.25,88,-2.222222222,08:51:12,5,1,2,1,NA,2,2,4,1,1,NA,5,2,1,NA,1,NA,3,1,8,1,1,NA,1,NA,NA,NA,NA,NA,NA,NA,NA,NA,NA,5,5,4,5,3,5,5,5,4,5,4,5,5,2,3,2,3,2,2,2,2,3,2,3,2,1,1,1,2,2,2,2,2,2,2,2,3,3,2,3,1,1,1,1,1,1,2,6,4,5,6,6,4,3,7,3,2,4,6,5,6,1,4,2,1,3,3,5,2,3,3,1,4,3,5,2,3,5,2,5,5,1,3,4,3,5,5,3,3,2,3,2,4,3,4,2,3,2,2,2,3,1,2,2,1,2,2,2,1,2,2,3,1,3,1,3,4,5,2,2,3,3,2,4,4,4,3,1,3,4,4,5,2,2,4,5,2,4,3,2,2,4,4,5,4,5,5,4,3,4,4,3,3,4,2,2,5,4,2,4,2,3,4,2,3,4,4,3,4,3,4,4,2,3,2,3,3,2,3
Oxford,1986,1,1,1,7,1.84,85,2,2,3,0,2,NA,1,2,37.1,35.9,36.5,51.75,-1.25,74,2.777777778,07:48:11,5,1,1,1,NA,4,1,4,1,3,1,2,1,1,NA,1,NA,1,NA,NA,1,2,6,1,NA,NA,NA,NA,NA,NA,NA,NA,NA,NA,2,2,3,4,2,2,1,2,3,1,2,3,3,3,3,3,3,3,3,3,3,3,3,3,3,3,3,1,1,1,1,1,1,1,1,1,1,1,1,1,1,1,1,1,1,1,1,2,2,2,3,6,4,2,5,4,2,2,3,2,2,6,2,2,2,3,1,2,6,2,2,3,1,2,6,2,2,2,2,6,6,2,2,4,3,4,4,4,4,5,4,2,6,4,4,4,4,6,4,2,2,1,2,2,1,2,2,2,3,2,2,3,2,3,2,5,6,5,3,3,2,3,3,5,4,4,1,2,4,2,2,5,4,3,4,4,4,4,2,5,2,2,4,3,4,3,2,4,4,4,4,4,2,4,4,2,2,4,4,4,2,3,3,2,2,1,3,3,3,3,2,4,5,4,3,4,3,1,2
VCU,1986,2,2,2,7,1.7526,NA,3,1,8,0,2,NA,1,2,36.61111111,36.55555556,36.58333333,37.55329895,-77.93450165,64,13.88888889,10:21:22,5,1,2,1,NA,4,4,5,NA,1,NA,5,5,1,NA,2,7,1,NA,NA,1,1,NA,2,ROSMY,NA,NA,NA,NA,15,NA,NA,NA,NA,4,1,2,3,5,4,2,3,2,4,4,4,4,4,3,4,3,3,3,3,3,3,4,3,4,3,3,2,3,3,4,4,2,2,2,4,4,4,4,4,2,2,2,2,2,2,2,7,7,7,7,6,6,5,6,6,5,4,4,4,6,7,4,7,2,4,6,5,6,6,5,3,4,6,3,3,4,3,2,6,6,4,4,4,3,4,2,3,4,4,4,4,3,6,6,6,6,5,5,3,3,2,4,4,3,4,4,4,4,2,2,1,3,2,2,3,2,2,1,2,2,1,3,3,4,4,2,2,1,2,4,4,2,2,4,3,2,4,3,4,1,4,5,4,4,4,3,3,2,3,4,1,3,2,3,3,4,4,4,2,2,4,3,4,2,2,4,4,5,1,2,3,4,1,2,3,4,4,4
Serbia,1986,2,1,1,6,1.7,55,3,2,0.01,0,1,15,1,2,36.7,36.7,36.7,44.81860352,20.46809387,44,12,11:48:37,6,1,1,2,2,4,4,4,1,3,1,4,4,1,NA,2,2,3,7,5,3,1,NA,1,NA,NA,NA,NA,NA,NA,NA,NA,NA,NA,4,2,5,5,4,3,3,3,5,4,3,2,4,3,4,4,2,3,2,4,3,3,4,3,4,2,3,1,1,1,1,1,1,1,1,2,4,3,3,1,2,1,1,1,1,1,2,2,2,2,4,2,2,1,5,3,4,NA,2,5,4,4,5,2,2,5,4,8,3,5,8,4,4,4,6,4,6,3,4,7,7,NA,6,3,4,3,3,4,3,2,2,2,3,2,2,2,2,2,4,2,3,1,2,2,1,3,2,3,1,2,2,4,2,1,2,4,2,4,2,1,2,2,3,2,2,4,2,3,4,4,2,4,3,4,2,2,4,3,3,3,2,2,4,2,2,4,3,2,2,2,3,4,2,3,3,2,4,3,4,4,2,3,4,4,3,2,3,3,3,2,2,2,4,3,2,2,2,3,2
Poland,1986,2,1,1,7,1.72,66,4,2,13,7,2,NA,1,2,36.9,36.58,36.74,51.93930054,15.50579834,89,0,10:39:06,9,1,1,2,2,3,1,4,1,1,NA,2,3,2,1,2,3,2,1,1,1,1,NA,1,NA,NA,NA,NA,NA,NA,NA,NA,NA,NA,1,1,2,1,2,2,1,1,1,2,2,2,2,4,4,4,3,3,3,3,4,3,3,4,4,4,4,5,5,4,5,5,4,5,4,5,5,4,5,4,5,4,4,4,3,3,5,3,6,3,2,5,3,6,4,6,5,2,4,4,3,6,6,7,2,5,4,3,3,3,2,2,2,2,3,2,6,6,2,6,4,3,4,4,4,4,4,4,4,4,4,4,6,3,4,4,5,5,5,4,5,2,2,4,4,5,4,3,4,4,3,4,1,3,2,4,5,5,4,4,5,4,2,2,2,4,2,3,3,3,3,4,3,4,3,4,4,2,4,3,3,3,4,4,3,4,3,4,3,3,4,3,3,3,2,3,3,4,2,2,2,4,4,2,4,2,2,2,4,4,3,4,2,4,4,4,4,3,3
Serbia,1986,2,1,2,1,1.59,49,4,2,4,0,2,NA,1,2,36.8,36.8,36.8,44.87080383,20.64030457,96,4,10:46:43,6,1,2,1,NA,4,4,5,NA,1,NA,5,4,1,NA,2,6,3,1,8,1,1,NA,1,NA,NA,NA,NA,NA,NA,NA,NA,NA,NA,4,5,5,5,3,5,5,2,5,4,5,3,5,2,2,3,2,2,2,2,4,2,2,3,3,3,2,3,3,2,3,2,2,2,2,3,2,2,2,2,2,2,3,2,2,2,2,2,2,2,1,2,4,2,2,NA,1,NA,2,2,2,2,4,1,2,2,NA,2,NA,5,3,5,4,5,NA,NA,NA,NA,2,7,4,NA,NA,5,4,4,4,4,3,2,3,3,3,2,2,2,2,3,2,3,3,1,3,2,2,4,2,2,2,2,2,3,1,2,1,4,4,2,1,4,5,4,2,1,1,5,3,3,4,2,4,3,2,2,3,3,3,2,4,3,3,4,3,3,4,4,2,2,4,2,2,4,2,3,2,2,4,3,3,2,4,2,3,4,3,3,2,4,4,4,4,4,3,4,2,3,2,3,2
VCU,1986,2,1,1,7,1.7018,93.18181818,3,1,0,1,2,NA,1,2,36.94444444,36.83333333,36.88888889,37.55220032,-77.45819855,57,17.22222222,09:43:25,5,1,1,1,NA,4,4,4,2,2,2,6,5,1,NA,2,5,3,1,5,3,2,2,1,NA,NA,NA,NA,NA,NA,NA,NA,NA,NA,3,2,3,2,5,3,1,2,2,2,4,4,4,4,3,5,3,4,4,3,4,3,4,4,5,3,3,2,4,3,4,2,3,3,4,4,5,4,4,4,4,2,3,3,3,2,4,2,3,1,3,2,2,1,5,1,1,3,3,2,4,3,1,6,2,3,1,2,2,2,2,4,3,3,1,1,1,1,3,1,1,3,1,5,4,4,5,4,4,3,3,2,2,3,3,3,2,2,2,3,4,2,3,4,4,4,4,3,4,4,3,2,2,2,2,2,2,4,4,3,3,3,2,4,4,4,2,4,2,4,4,5,3,3,3,4,4,2,4,4,2,3,4,5,4,4,4,4,2,4,3,2,2,4,2,4,4,4,4,2,2,4,2,4,4,4,1,3,4,4,3,4,2,4,4,4,3,2,2
Zurich,1986,1,1,2,1,1.7,70,4,2,0,0,2,NA,1,2,37,37,37,47.53179932,8.663497925,63,4,19:48:57,1,1,2,1,NA,4,4,5,NA,1,NA,1,1,1,NA,1,NA,1,NA,NA,1,1,NA,1,NA,NA,NA,NA,NA,NA,NA,NA,NA,NA,3,3,1,3,3,3,3,3,3,3,3,3,3,3,3,3,3,3,3,3,3,3,3,3,3,3,3,3,3,3,3,3,3,3,3,3,3,3,3,3,3,3,3,3,3,3,3,4,4,4,4,4,4,4,4,4,4,4,4,4,4,4,4,4,4,4,4,4,4,4,4,4,4,4,4,4,4,4,4,4,4,4,4,3,3,3,3,3,3,3,3,3,7,3,3,3,3,3,3,3,3,3,3,3,3,3,3,3,3,3,3,3,3,3,3,1,1,4,4,4,4,4,3,3,3,3,3,3,3,3,3,3,3,3,3,3,3,3,3,3,3,3,3,3,3,3,3,3,3,3,3,3,3,3,3,3,3,3,3,3,3,3,3,3,3,3,3,3,3,3,3,3,3,3,3,3,3,3,3
Kassel,1986,2,1,1,7,1.7,67,1,1,48,0,2,NA,1,2,37.2,37.08,37.14,50.17080688,8.92199707,55,5,10:27:29,1,1,2,1,NA,4,3,5,NA,3,2,8,7,1,NA,1,NA,3,7,6,1,1,NA,2,Mentoring-Gruppe,NA,NA,NA,NA,4,NA,NA,NA,NA,4,4,5,4,5,2,5,4,4,1,5,4,5,5,5,5,2,3,3,3,5,3,5,4,5,4,5,5,5,1,5,1,2,3,1,4,5,3,2,5,2,1,1,1,5,1,1,3,4,1,2,2,4,2,7,4,2,3,2,2,2,6,6,5,2,5,2,6,2,6,5,6,2,4,2,1,3,3,2,7,7,1,6,1,1,5,2,1,1,1,1,1,2,1,1,2,1,2,1,4,2,1,2,1,2,2,1,1,2,2,1,1,3,5,2,2,2,5,2,2,2,2,5,1,1,5,3,5,2,1,4,3,2,1,1,2,5,1,2,1,2,5,5,5,2,5,5,5,1,1,3,1,1,5,3,4,1,5,3,5,1,3,5,4,4,5,1,3,5,4,3,1,2,4,5,2,5,1,5
Oxford,1987,2,1,1,6,1.7272,NA,3,2,0,0,2,NA,2,2,36,35,35.5,51.75,-1.25,86,0,07:54:39,5,1,1,1,NA,4,4,4,1,1,NA,8,3,1,NA,2,8,1,NA,NA,2,1,NA,1,NA,NA,NA,NA,NA,NA,NA,NA,NA,NA,2,4,5,4,3,4,4,4,3,3,4,5,3,4,3,4,2,3,2,3,4,4,3,3,5,2,3,2,4,2,1,1,3,1,1,4,4,1,1,1,1,1,1,1,2,1,1,5,5,5,5,6,2,1,4,1,5,1,5,1,4,5,5,1,5,3,1,2,2,1,1,1,2,1,2,1,2,1,2,1,3,3,2,5,4,4,4,2,4,4,4,4,5,5,5,5,5,5,5,2,1,1,1,2,3,2,1,3,3,3,1,1,2,3,2,4,4,5,2,2,2,1,1,4,4,4,4,4,2,3,5,2,2,1,4,3,2,1,1,1,4,4,5,2,5,4,2,5,1,4,4,2,1,5,2,3,1,5,4,4,1,1,3,5,1,1,1,4,5,4,5,5,1,4,4,3,3,2,1
Kassel,1987,1,2,1,4,1.81,70.3,3,1,8,0,1,2,1,2,35.1,36.1,35.6,51.31669617,9.5,54,1,10:12:53,1,1,2,1,NA,4,2,5,NA,5,3,8,5,2,1,2,7,1,NA,NA,2,1,NA,1,NA,NA,NA,NA,NA,NA,NA,NA,NA,NA,3,3,4,4,2,3,1,3,2,2,4,2,3,3,4,4,3,3,3,3,2,3,2,4,5,2,3,2,2,2,4,2,2,4,3,4,4,3,3,3,2,1,2,2,1,1,3,3,4,3,2,2,2,2,2,3,2,2,2,4,2,1,1,4,1,2,1,2,3,3,5,6,1,2,1,2,2,2,1,4,3,3,2,5,4,4,5,4,4,4,4,4,6,5,5,4,5,3,4,2,2,1,2,3,3,2,3,2,2,2,2,2,3,3,2,3,3,4,5,2,5,5,4,2,3,5,4,4,4,3,4,3,4,2,2,3,3,2,3,2,3,4,3,3,4,3,4,3,3,3,4,4,3,1,2,3,3,4,4,2,2,3,4,3,4,2,2,3,3,2,2,3,3,3,2,3,4,2,2
Zurich,1987,1,1,2,5,1.85,91,4,2,55,10,2,NA,1,2,35.5,35.8,35.65,47.3605957,8.532501221,64,1,09:02:02,1,1,2,1,NA,4,4,5,NA,5,5,4,4,1,NA,1,NA,3,1,8,3,1,NA,1,NA,NA,NA,NA,NA,NA,NA,NA,NA,NA,1,3,4,4,3,4,2,3,4,3,3,2,2,3,2,3,3,3,2,2,3,3,4,3,3,2,2,3,2,4,4,2,2,3,3,4,4,2,4,3,4,3,4,3,2,2,3,5,5,5,5,3,5,3,4,5,3,3,5,5,3,5,3,4,2,5,3,2,2,3,4,1,3,7,3,3,4,5,1,5,4,2,3,5,5,5,5,4,4,2,4,4,6,5,5,3,3,3,4,4,3,2,2,3,4,2,3,4,3,3,3,4,2,2,3,3,2,1,2,2,3,4,2,2,3,4,2,1,3,3,3,3,4,3,4,3,3,2,2,4,4,4,2,3,4,4,3,3,3,3,2,2,2,3,3,2,3,3,2,3,3,3,2,3,3,2,3,3,3,3,2,4,3,2,3,3,3,4,2
Kassel,1987,1,1,1,6,1.81,75,4,2,2,0,2,NA,1,2,35.4,36.4,35.9,NA,NA,53,12,09:24:08,1,1,2,1,NA,4,4,5,NA,8,8,4,3,2,1,2,8,1,NA,NA,3,1,NA,1,NA,NA,NA,NA,NA,NA,NA,NA,NA,NA,4,4,5,3,4,1,4,5,4,5,5,4,3,3,4,3,2,3,2,3,3,4,2,3,4,1,2,2,1,1,3,1,1,2,2,2,4,2,4,2,3,1,1,1,2,1,4,1,1,2,1,4,2,2,3,1,1,2,1,1,2,2,2,1,1,2,4,4,2,2,2,2,2,2,2,3,2,3,1,7,6,2,2,5,5,4,5,5,3,2,5,4,7,5,6,5,7,6,6,1,2,1,2,1,1,1,1,2,1,1,2,2,2,3,3,4,2,4,2,2,2,2,3,2,3,5,5,4,4,3,5,3,1,5,3,2,1,2,2,1,3,4,2,4,4,2,3,4,5,3,4,4,1,1,2,2,2,4,4,3,1,3,4,3,4,2,1,5,3,2,2,4,3,1,2,4,2,4,2
Oxford,1987,2,4,1,7,1.7,53,5,2,0,27,2,NA,1,2,35.5,36.4,35.95,51.75,-1.25,88,-2.222222222,08:35:11,5,1,1,1,NA,4,4,4,4,6,4,5,3,1,NA,2,8,3,8,5,1,1,NA,1,NA,NA,NA,NA,NA,NA,NA,NA,NA,NA,5,4,5,4,2,4,4,4,4,5,5,5,4,1,1,2,2,1,1,1,2,2,1,3,5,1,3,2,1,1,2,1,1,2,1,2,4,1,1,3,1,4,4,1,4,1,1,1,1,1,1,1,1,1,1,1,3,1,1,1,1,1,4,2,1,1,1,1,1,1,1,1,1,1,1,1,1,1,1,1,1,1,1,5,5,4,5,5,3,3,1,1,2,1,1,1,2,2,2,1,1,1,1,1,2,3,2,2,1,1,2,2,2,1,3,5,8,6,1,2,7,5,2,1,2,5,5,5,3,5,2,1,1,2,1,1,4,2,1,1,3,3,2,1,5,5,2,5,4,5,5,4,1,1,1,1,2,5,2,4,2,4,4,1,1,1,1,2,4,4,5,4,3,2,4,4,4,5,4
Poland,1987,2,1,1,6,1.68,60,3,2,10,12,2,NA,1,2,36,36,36,53.41670227,14.58329773,87,4,20:24:17,9,1,1,2,2,2,2,4,4,8,8,8,8,2,3,2,8,3,8,8,3,1,NA,1,NA,NA,NA,NA,NA,NA,NA,NA,NA,NA,3,4,4,5,4,4,2,3,3,3,3,4,4,3,3,3,3,4,4,3,3,3,3,2,4,3,3,3,2,3,1,3,1,1,2,2,1,3,1,4,4,2,2,2,3,1,3,2,2,2,2,2,2,2,2,3,5,6,2,2,2,2,4,2,2,4,6,6,3,6,5,4,4,2,3,4,6,6,4,6,6,4,3,4,5,5,5,5,3,3,4,4,7,6,6,4,5,5,5,2,3,2,3,2,3,3,3,2,2,2,4,2,2,3,2,5,6,4,4,4,4,4,2,2,2,5,4,3,3,3,4,3,2,2,4,4,3,2,4,2,3,4,4,4,4,4,4,4,4,3,3,4,3,2,3,4,3,4,3,3,3,3,3,4,3,2,2,3,4,4,3,3,3,4,3,4,4,4,4
Serbia,1987,2,1,1,6,1.73,62,5,2,0,0,2,NA,1,2,35.6,36.4,36,44.81860352,20.46809387,88,9,11:08:40,6,1,1,1,NA,2,2,4,4,6,4,4,6,1,NA,1,NA,2,1,8,1,1,NA,2,rekreacija,NA,NA,NA,NA,20,NA,NA,NA,NA,5,3,5,4,4,2,3,3,5,4,3,2,3,2,3,3,3,2,2,2,3,2,3,3,3,3,3,3,2,2,2,4,2,2,2,4,4,2,3,2,3,2,2,4,2,4,4,1,2,2,8,4,2,5,1,3,2,1,1,5,2,1,2,2,2,2,NA,4,1,1,2,2,3,NA,NA,1,3,NA,2,6,NA,1,NA,5,4,4,5,5,5,4,4,4,6,5,4,4,6,6,6,3,3,2,3,2,2,2,2,2,2,2,2,2,2,2,2,3,2,3,2,3,3,4,2,2,4,4,2,2,2,2,2,4,3,2,4,3,2,4,3,3,3,3,3,3,4,4,2,2,1,3,2,2,4,2,2,2,2,2,2,2,2,4,3,4,3,2,2,4,3,2,2,4,3,2,2,4,2,4,2
Kassel,1987,2,1,1,7,1.6,60,3,2,0,0,1,2,1,2,35.5,36.6,36.05,51.31669617,9.5,62,7,09:29:31,1,1,1,2,2,4,4,4,1,3,2,5,3,1,NA,2,6,1,NA,NA,1,1,NA,1,NA,NA,NA,NA,NA,NA,NA,NA,NA,NA,3,2,5,5,4,3,2,2,4,4,4,4,3,2,4,3,2,2,2,3,3,2,2,4,5,2,3,1,4,1,2,2,1,1,2,2,4,4,4,4,2,1,1,1,1,1,4,5,5,5,6,4,6,5,2,2,1,6,1,1,1,5,1,2,1,1,2,6,2,1,1,1,1,1,1,2,1,2,1,7,7,3,1,5,5,4,5,5,4,4,4,3,6,5,5,5,4,3,3,2,1,1,2,1,2,2,1,1,2,3,2,1,1,1,1,4,7,7,4,6,6,8,1,2,1,5,3,5,2,1,5,1,2,1,1,3,4,1,2,4,3,5,2,3,4,5,5,5,4,3,4,3,1,1,1,3,3,4,2,1,1,2,2,3,4,4,1,5,3,5,5,3,1,5,5,1,4,4,1
Chile,1987,2,3,1,7,1.73,58,2,2,2,0,2,0,1,2,36.1,36,36.05,33.44999695,-70.66670227,76,8,11:51:05,2,1,2,1,NA,4,2,4,4,5,1,8,8,1,NA,2,8,4,1,8,1,1,NA,2,grupo de izquierda,NA,NA,NA,NA,15,NA,NA,NA,NA,1,3,1,4,2,2,1,1,1,1,1,1,4,3,3,4,2,2,2,3,4,2,2,3,5,4,2,4,2,2,4,2,2,5,2,4,5,5,5,5,5,2,2,5,5,2,5,7,5,5,6,1,7,2,5,7,1,5,7,4,2,5,7,2,1,3,7,2,1,5,1,1,3,2,1,1,1,2,1,1,3,1,1,4,4,4,4,4,4,4,4,4,2,5,6,7,2,2,2,2,1,1,1,1,1,2,1,1,1,2,1,1,1,2,1,4,2,2,2,2,2,2,1,4,4,4,2,2,2,5,5,5,2,1,1,2,4,2,5,1,4,4,4,2,4,5,4,5,5,5,5,5,1,1,1,4,1,5,2,4,2,3,2,4,2,1,2,2,5,1,1,1,1,1,4,2,3,1,4
Zurich,1987,2,4,2,1,1.66,63,4,2,0,0,2,NA,1,2,36.2,36.1,36.15,NA,NA,84,6,11:54:07,1,1,2,1,NA,4,1,5,NA,1,NA,7,7,1,NA,1,NA,1,NA,NA,2,2,8,2,Deutschtreff f¨¹r Asylsuchende,NA,NA,NA,NA,7,NA,NA,NA,NA,4,4,5,4,3,2,4,4,4,4,5,3,4,2,3,3,2,2,2,2,3,3,2,2,4,2,3,2,2,1,2,2,1,3,1,2,2,2,1,3,1,1,1,1,1,1,1,2,2,2,3,4,3,1,2,2,4,2,4,4,5,3,2,5,4,3,3,5,3,5,2,3,3,3,3,3,3,3,2,7,7,2,4,1,2,2,2,1,1,1,2,2,6,3,4,3,3,4,4,2,2,1,2,1,2,2,2,2,3,4,2,1,2,3,1,5,7,7,5,6,6,7,4,3,4,4,2,1,3,3,1,4,3,1,4,3,3,3,3,3,3,4,4,5,3,4,4,4,1,3,3,1,1,5,3,1,3,4,1,4,2,4,2,2,2,2,4,4,4,4,4,4,4,4,3,3,3,2,3
Oxford,1987,2,2,1,7,1.7018,64.09090909,3,2,0,0,2,NA,1,2,35.5,36.9,36.2,51.75,-1.25,88,-2.222222222,07:20:00,5,1,1,1,NA,4,1,4,2,5,1,8,6,1,NA,1,NA,3,8,8,1,1,NA,2,Music Group,NA,NA,NA,NA,3,NA,NA,NA,NA,2,2,5,2,3,4,2,1,5,4,3,3,3,2,3,3,2,2,1,3,3,2,2,2,5,2,3,2,4,2,4,2,1,2,2,3,3,1,1,2,1,1,1,1,1,1,1,3,2,1,2,2,2,1,2,2,1,5,2,2,2,3,2,6,1,1,1,5,2,5,2,2,2,2,2,1,1,1,1,5,5,2,2,4,3,4,4,3,4,2,2,1,6,6,4,4,5,5,6,2,4,2,4,2,2,4,2,2,3,2,2,2,3,3,2,5,5,4,2,2,6,4,3,3,4,4,2,2,1,1,3,5,2,2,3,3,3,3,2,2,3,3,4,3,3,5,4,3,3,3,3,3,1,2,1,3,4,4,4,4,2,3,2,4,2,2,4,3,3,2,2,3,2,3,3,2,2,4,2
Kassel,1987,1,1,1,7,1.74,79,4,2,40,24,2,NA,1,2,36,36.4,36.2,51.31669617,9.5,62,7,10:46:32,1,1,4,1,NA,2,2,4,1,2,2,4,2,1,NA,2,2,1,NA,NA,1,1,NA,2,Hochschulgruppe,NA,NA,NA,NA,2,NA,NA,NA,NA,3,3,3,2,2,2,3,3,2,2,2,2,4,3,3,3,3,3,3,2,3,3,3,3,3,3,3,3,4,4,4,3,2,4,4,3,2,3,2,2,2,2,2,2,3,3,2,4,5,4,5,5,5,4,4,5,4,4,4,5,3,4,3,4,4,4,3,4,4,3,3,3,3,4,3,4,2,4,3,5,5,4,4,4,3,3,4,3,2,2,3,3,5,3,4,4,4,4,4,2,2,2,3,2,2,2,3,3,2,2,2,3,3,4,3,3,2,3,2,3,3,3,2,3,3,4,3,2,3,3,2,4,3,2,3,3,3,3,4,2,3,3,3,4,4,4,4,4,2,4,3,2,2,4,3,3,3,3,4,3,3,2,3,4,3,2,4,3,4,4,4,2,3,2,2,2,2,3,2
Oslo,1987,1,1,1,6,1.75,77,3,2,0,12,2,NA,2,2,36.7,36,36.35,NA,NA,50,-2,21:36:36,4,1,1,2,2,4,4,4,4,3,2,5,2,1,NA,1,NA,3,1,8,1,1,NA,1,NA,NA,NA,NA,NA,NA,NA,NA,NA,NA,3,3,2,2,2,3,2,4,2,3,4,2,2,2,2,2,3,3,3,4,2,3,3,3,2,3,3,3,4,4,4,3,4,3,4,4,4,4,4,4,4,4,4,4,4,3,4,2,2,3,2,4,2,4,3,5,3,4,2,5,4,3,3,3,5,2,5,4,3,4,4,3,4,6,3,4,6,3,4,3,5,3,4,5,5,5,5,5,5,5,5,5,6,4,4,4,3,5,5,2,4,2,3,2,2,2,3,4,3,2,2,2,4,3,3,5,7,6,2,3,4,6,3,3,2,4,3,2,4,3,3,3,2,3,2,4,3,3,3,2,3,2,4,3,3,4,3,3,3,4,3,3,3,2,3,4,3,3,3,2,3,3,2,4,3,3,3,4,3,2,4,4,4,4,3,4,3,4,2
Chile,1987,2,1,1,7,1.59,67,4,2,2,18,1,NA,1,2,36.5,36.4,36.45,33.44999695,-70.66670227,87,7,12:09:54,2,1,1,1,NA,4,4,4,4,8,3,5,3,1,NA,1,NA,5,2,8,1,1,NA,1,NA,NA,NA,NA,NA,NA,NA,NA,NA,NA,2,2,4,3,2,4,2,4,3,4,4,2,4,2,4,3,2,2,2,3,3,2,3,3,4,2,3,4,2,4,4,2,1,3,4,4,4,3,4,4,1,2,3,3,3,1,3,2,2,2,7,1,6,1,5,2,2,6,1,2,2,3,7,6,2,2,1,3,1,1,1,1,1,2,1,1,1,2,1,5,5,2,2,4,4,4,4,4,3,4,4,4,5,6,6,5,6,4,5,2,2,2,2,2,2,3,2,3,2,2,3,2,1,4,2,4,6,4,3,4,3,3,5,4,3,5,4,2,2,2,2,3,2,3,3,4,3,3,3,3,2,4,4,5,4,5,5,4,3,3,4,2,2,2,2,1,3,2,3,2,2,3,2,4,4,2,2,4,4,3,3,4,5,2,5,4,4,2,3
SMU,1987,1,1,1,7,1.78,80.3,3,2,NA,0,2,NA,1,2,36.4,36.6,36.5,1.293106079,103.8558044,70,27,10:04:08,5,1,2,1,NA,4,4,4,4,5,2,8,4,2,8,2,8,1,NA,NA,3,2,5,2,SWC,DBS,NA,NA,NA,3,2,NA,NA,NA,5,5,5,5,5,5,5,3,5,5,5,5,5,3,2,3,1,1,1,1,2,1,1,2,4,2,2,1,1,1,1,1,1,1,1,1,1,1,1,1,1,1,1,1,1,1,1,1,1,1,1,1,1,1,1,1,1,1,1,1,2,1,1,1,1,1,1,1,1,1,1,1,1,7,1,1,1,1,1,1,1,1,1,4,4,4,4,4,4,4,4,4,6,7,7,7,7,7,7,1,1,1,1,1,1,1,1,1,1,1,1,1,2,5,3,3,2,1,2,2,2,2,3,5,5,1,1,3,5,3,3,5,5,3,5,5,3,5,2,1,4,4,4,4,4,4,3,4,3,4,4,4,2,2,2,4,2,5,5,5,1,3,2,4,3,4,4,4,4,4,3,2,3,4,4,1,1,1,3
Serbia,1987,1,1,1,4,1.93,90,5,2,9,0,2,NA,1,2,36.5,36.5,36.5,44.81860352,20.46809387,95,11,11:04:34,6,1,2,1,NA,4,4,4,1,8,3,8,8,1,NA,2,8,3,8,8,1,1,NA,1,NA,NA,NA,NA,NA,NA,NA,NA,NA,NA,4,3,4,5,4,4,4,5,4,4,4,4,4,2,3,3,1,2,1,1,2,2,2,3,4,2,2,3,3,2,3,3,2,2,2,3,3,2,2,3,2,1,1,2,1,1,2,2,2,2,2,8,1,2,2,NA,2,NA,2,2,2,4,2,2,2,7,6,7,4,5,3,5,4,4,4,3,4,4,4,6,7,3,4,5,3,4,5,5,2,2,2,2,4,4,5,4,6,5,5,1,1,1,3,2,1,2,1,5,2,2,1,1,2,5,2,5,2,3,1,1,2,3,1,4,2,4,1,4,2,2,2,5,2,3,2,1,4,5,3,3,4,3,3,4,2,2,2,2,2,2,4,4,2,2,2,2,3,5,4,2,2,4,4,4,4,3,2,4,4,4,3,3,3,4,2,2,3,4,2
VCU,1987,2,1,1,7,1.7272,55.90909091,3,2,5,0,2,NA,1,2,36.44444444,36.72222222,36.58333333,37.61920166,-77.4960022,82,11.11111111,09:54:18,5,1,1,2,2,4,2,4,4,6,4,4,4,2,2,2,3,3,8,4,1,1,NA,2,GK HONOR SOCIETY,NA,NA,NA,NA,5,NA,NA,NA,NA,4,2,5,4,4,3,2,3,4,4,4,4,4,2,3,3,3,2,4,2,2,3,2,3,4,2,2,4,4,2,4,2,2,3,2,3,4,4,4,2,4,2,2,4,4,2,2,3,3,2,2,2,3,5,2,5,3,5,2,2,2,2,3,5,2,2,2,3,2,2,2,2,2,2,2,2,2,2,2,3,3,2,6,2,4,2,2,4,2,2,2,1,3,4,4,3,3,3,3,2,2,2,2,2,3,4,2,2,2,2,2,2,2,2,2,5,7,6,6,5,6,6,3,3,4,4,1,2,2,2,2,4,2,1,2,2,4,4,4,4,2,2,4,3,4,4,4,4,4,4,4,4,4,2,2,2,5,3,4,3,2,2,2,4,2,2,2,4,4,4,3,4,3,2,4,4,4,4,4
Oxford,1987,2,1,2,5,1.64,60,3,2,3,0,2,NA,1,2,36.6,36.7,36.65,51.75,-1.25,88,-2.222222222,08:08:41,5,1,2,1,NA,4,4,5,NA,2,1,6,3,1,NA,1,NA,3,1,6,1,1,NA,2,Archery club,NA,NA,NA,NA,7,NA,NA,NA,NA,2,2,3,5,2,4,3,2,4,4,4,2,4,3,3,5,3,3,2,3,3,3,2,3,4,2,3,2,4,1,3,1,1,1,4,4,2,1,1,2,1,1,1,1,1,1,1,2,1,1,1,1,1,1,2,2,1,7,1,7,1,2,1,1,1,3,5,4,2,5,2,5,2,2,3,5,5,3,1,2,2,2,4,5,4,4,5,3,3,3,4,2,4,5,5,5,4,5,4,2,5,1,4,1,1,5,5,1,4,1,4,5,3,4,3,4,4,3,1,3,1,2,1,1,1,5,4,3,2,2,2,2,2,1,1,2,5,5,5,3,1,3,4,4,3,2,1,3,2,3,2,1,1,3,2,2,1,3,4,2,2,2,2,1,3,1,1,3,4,1,1,3,4,2,1,2,2,1,1
VCU,1987,2,1,1,7,1.6256,63.63636364,5,2,4,0,2,NA,1,2,36.61111111,36.72222222,36.66666667,37.55220032,-77.45819855,94,13.33333333,10:14:05,5,1,1,1,NA,4,2,4,2,3,1,2,2,1,NA,2,5,3,8,1,1,1,NA,1,NA,NA,NA,NA,NA,NA,NA,NA,NA,NA,3,4,4,4,4,4,3,4,2,3,3,4,5,4,3,4,2,3,3,2,2,3,3,3,4,4,4,1,4,2,4,1,1,3,3,3,4,3,3,4,3,1,1,1,5,3,2,6,5,5,3,2,6,3,2,3,5,2,2,3,3,5,4,6,2,4,3,6,2,3,2,3,3,2,2,3,2,2,2,3,3,4,3,4,4,4,3,4,3,3,3,3,7,7,6,6,6,6,6,4,4,2,2,4,2,4,2,4,2,2,2,3,2,3,2,5,6,5,5,5,2,1,2,3,3,5,4,3,3,4,4,3,4,2,2,4,3,2,2,3,1,3,4,4,3,4,4,4,4,4,4,4,4,4,4,3,4,4,4,3,2,3,4,2,4,3,4,3,4,4,4,4,3,4,3,4,4,2,2
Poland,1987,2,1,1,7,1.67,68,3,1,7,4,2,NA,1,2,36.7,36.7,36.7,52.23330688,21.01669312,70,4,10:43:59,9,1,1,1,NA,4,2,2,2,4,2,7,4,2,1,2,1,6,1,2,1,1,NA,1,NA,NA,NA,NA,NA,NA,NA,NA,NA,NA,2,1,2,3,5,3,1,1,2,1,1,1,4,5,4,4,3,2,3,2,5,3,2,3,4,3,5,1,1,1,3,1,1,2,1,1,1,1,1,1,1,1,1,1,1,1,1,5,4,1,2,2,5,1,1,3,1,3,1,1,2,4,5,7,1,1,3,4,1,5,1,2,2,2,2,4,6,3,1,5,4,3,2,5,3,5,5,4,3,3,3,3,6,6,4,4,6,6,6,3,2,3,2,3,3,4,2,1,3,3,3,4,1,2,2,5,5,6,2,3,4,1,4,4,4,4,1,3,3,3,3,5,4,1,4,5,5,3,4,4,4,5,5,5,3,5,5,5,2,5,3,2,1,4,4,4,2,2,3,2,2,4,3,4,3,2,1,4,5,5,3,5,2,5,4,4,3,3,5
METU,1987,2,1,2,7,1.6,62,4,2,0,1,2,NA,1,2,36.7,36.7,36.7,39.91169739,32.84030151,66,4,10:11:57,3,2,2,1,NA,4,4,5,NA,8,5,6,4,1,NA,2,8,2,1,8,7,1,NA,1,NA,NA,NA,NA,NA,NA,NA,NA,NA,NA,4,4,4,5,3,4,3,4,2,4,4,3,5,2,3,3,2,2,2,2,3,3,3,3,3,2,3,4,4,4,2,4,4,4,2,4,4,4,4,4,4,1,2,2,2,2,5,2,2,2,2,7,6,2,2,2,1,5,2,1,1,4,4,5,1,2,2,5,5,5,2,4,5,5,2,1,4,2,5,2,2,3,4,5,5,5,5,5,4,3,5,5,6,6,6,7,6,5,5,1,2,1,2,1,2,2,2,4,1,1,2,2,4,3,5,4,4,6,1,2,2,1,2,2,2,5,3,4,3,2,4,4,4,1,1,4,4,3,4,4,2,4,4,4,4,4,4,4,4,4,4,4,1,1,1,2,5,4,4,2,2,4,3,4,4,4,1,4,3,4,4,5,2,5,5,5,4,4,4
Poland,1987,2,1,2,7,1.68,63,3,2,17,12,2,NA,1,2,36.8,36.8,36.8,52.25,21,85,1,12:43:59,9,1,2,1,NA,4,4,5,1,3,3,5,3,2,1,2,5,6,1,8,1,2,3,1,NA,NA,NA,NA,NA,NA,NA,NA,NA,NA,4,5,5,5,4,5,4,4,3,5,4,4,5,2,3,4,5,4,5,3,1,4,4,4,2,4,2,1,1,1,2,2,2,1,2,2,2,1,2,3,2,1,1,3,2,1,3,5,3,2,5,3,5,4,5,4,2,5,2,2,6,2,5,3,2,5,4,2,4,4,5,2,6,5,4,3,6,5,3,7,6,6,5,4,2,3,4,3,2,1,3,2,2,3,2,2,3,4,4,2,2,2,2,1,2,2,1,1,1,1,3,3,1,2,2,4,6,5,2,2,4,2,4,4,2,4,2,3,2,2,2,5,4,1,2,5,2,3,2,1,3,3,4,4,4,4,2,3,2,2,3,2,2,4,2,2,1,2,2,4,2,2,4,4,3,1,2,2,4,4,3,4,4,4,4,4,4,2,4
Bamberg,1988,1,1,1,7,1.8,72,4,2,1,0,2,NA,1,2,35.6,35.5,35.55,55.69999695,13.18330383,87,1,10:35:08,1,1,2,1,NA,4,4,4,1,5,4,7,4,1,NA,1,NA,3,1,6,7,2,3,2,Klettergruppe,NA,NA,NA,NA,1,NA,NA,NA,NA,4,4,4,5,4,5,4,3,4,4,4,5,4,2,2,2,1,3,2,3,2,2,3,1,2,1,2,1,1,1,1,1,1,1,1,1,2,1,2,2,2,1,1,1,1,1,2,4,1,2,2,2,1,1,2,2,1,2,1,3,1,2,2,1,1,1,2,2,2,2,2,2,1,2,3,3,1,1,1,4,4,2,2,3,4,3,4,3,2,2,4,4,4,2,3,4,3,2,3,2,2,3,2,2,1,2,2,3,1,1,1,4,2,3,2,4,4,5,1,1,2,1,5,1,5,5,4,1,1,3,1,4,2,4,4,2,1,2,1,4,2,5,4,5,4,3,5,4,2,3,4,3,1,3,3,1,1,4,1,4,2,2,4,3,4,4,4,3,4,2,4,3,3,4,3,4,4,4,1
Kassel,1988,1,1,1,2,1.9,75,3,2,18,0,1,15,1,2,35.3,36.1,35.7,51.30560303,9.465194702,68,7,09:36:43,1,1,2,1,NA,2,2,5,NA,4,2,4,3,1,NA,2,8,1,NA,NA,3,1,NA,1,NA,NA,NA,NA,NA,NA,NA,NA,NA,NA,2,2,4,2,2,5,3,2,3,4,4,2,2,3,3,3,3,3,3,3,3,3,3,3,3,3,3,4,3,2,4,4,2,3,4,4,3,4,4,4,4,4,4,3,3,5,4,4,4,4,4,4,4,4,4,4,4,4,4,4,4,4,4,4,4,4,4,4,4,4,4,4,4,4,4,4,4,4,4,4,4,4,4,4,2,3,3,4,3,2,4,3,3,3,3,3,3,3,3,2,2,2,3,2,3,3,2,2,3,2,2,3,2,3,1,4,4,5,4,2,3,3,2,2,2,5,3,4,4,3,4,4,1,3,3,5,4,1,3,4,4,5,4,5,3,5,4,5,2,3,4,3,1,2,3,3,2,3,3,4,2,2,2,4,2,4,2,3,3,3,4,3,2,2,3,3,3,3,3
Oxford,1988,2,1,1,7,1.65,69,3,2,1,0,2,NA,1,2,35.8,35.6,35.7,51.75,-1.25,74,2.777777778,08:31:40,5,1,2,1,NA,4,2,5,NA,2,2,8,8,2,8,2,8,1,NA,NA,1,1,NA,2,Spiritual course,NA,NA,NA,NA,5,NA,NA,NA,NA,3,2,2,1,2,4,2,4,2,3,4,2,4,4,3,3,3,2,2,2,4,3,3,3,4,3,2,4,4,2,4,2,5,2,4,4,5,5,3,5,3,2,2,3,3,3,2,2,2,3,2,2,6,2,2,2,2,2,2,4,2,2,2,3,2,2,2,6,2,2,2,2,2,2,2,3,2,3,2,6,6,2,3,5,3,4,4,3,3,4,3,3,4,5,5,5,5,5,5,4,2,2,2,2,2,3,2,2,4,3,2,2,2,2,1,4,3,3,2,3,1,1,2,2,4,4,4,5,1,2,4,4,2,2,4,2,3,1,2,4,2,1,5,4,2,5,4,4,3,2,3,2,2,3,2,4,4,4,4,2,2,4,2,4,2,2,1,4,3,2,2,3,2,5,2,4,2,2,4
Bamberg,1988,2,1,1,6,1.72,75,3,2,2,0,2,NA,1,2,35.6,36,35.8,51.3717041,12.33210754,81,9,11:23:30,1,1,1,2,2,4,2,4,1,1,NA,6,1,1,NA,1,NA,1,NA,NA,1,1,NA,2,Krabbelgruppe,NA,NA,NA,NA,5,NA,NA,NA,NA,2,1,2,2,2,5,1,1,1,5,2,2,3,2,3,3,3,4,3,2,3,4,3,3,3,3,4,1,4,1,1,1,1,1,1,1,2,2,1,1,1,1,1,1,1,1,2,1,1,1,1,1,1,1,1,2,1,1,1,1,1,1,1,1,1,1,1,1,1,1,1,1,1,1,1,1,1,2,1,2,2,1,3,5,5,4,4,4,5,5,5,3,3,3,4,4,3,2,3,2,2,2,2,2,2,2,1,3,1,1,2,1,1,3,1,4,7,6,4,3,3,4,4,5,4,4,1,2,4,5,1,5,3,2,4,5,2,3,1,1,3,4,4,5,4,5,2,5,1,2,4,1,1,1,1,2,1,4,3,3,2,3,2,5,4,3,3,3,3,3,3,2,2,5,3,3,2,1,1
Kassel,1988,2,1,2,2,1.59,52,4,1,0,0,2,NA,1,2,35.6,36.4,36,51.28779602,9.470504761,77,5,09:52:27,1,1,2,1,NA,4,4,5,NA,8,5,8,8,2,1,2,8,3,5,8,1,2,2,1,NA,NA,NA,NA,NA,NA,NA,NA,NA,NA,1,4,5,3,2,2,4,4,3,4,4,3,3,2,2,2,2,2,1,2,2,2,3,2,4,2,2,2,1,1,3,3,1,1,2,1,3,1,2,2,2,1,1,1,2,1,3,1,2,3,4,5,2,1,4,6,2,6,2,4,1,1,4,1,1,1,2,4,4,1,2,5,3,7,3,3,3,3,1,5,6,3,3,3,4,4,3,3,3,2,4,2,3,4,4,4,4,4,4,1,2,1,2,1,1,1,2,1,1,1,3,3,2,3,2,3,4,4,2,4,3,4,2,4,3,4,4,3,4,4,2,4,2,2,3,3,4,3,1,1,3,4,4,2,4,4,4,4,3,4,3,2,1,2,2,3,1,3,3,4,3,3,2,4,2,1,1,3,2,2,3,3,2,2,2,2,2,4,1
Kassel,1988,2,1,1,7,1.56,69,2,2,8,0,2,NA,1,2,36,36.1,36.05,50.0874939,8.47479248,65,3,09:48:38,1,1,2,1,NA,4,4,5,NA,4,3,8,8,2,1,1,NA,3,1,8,4,1,NA,2,Tanzkurs,NA,NA,NA,NA,7,NA,NA,NA,NA,4,4,5,4,3,3,4,4,4,2,5,4,5,3,3,3,2,2,2,3,3,2,3,4,4,2,3,1,3,1,3,1,1,1,1,2,2,1,2,1,2,1,1,1,1,1,1,2,2,1,2,2,3,2,2,2,2,2,2,1,1,1,1,2,1,1,1,2,2,2,2,1,2,6,1,2,1,1,2,6,4,1,2,5,4,4,4,4,3,3,3,4,3,5,5,4,5,3,3,1,2,2,3,1,2,2,1,2,1,1,2,1,2,3,1,4,6,5,4,2,2,3,2,4,4,3,2,1,3,3,2,4,4,3,4,1,4,4,2,3,2,4,4,5,4,4,3,4,3,4,3,3,2,2,3,2,4,5,4,4,2,3,2,4,2,1,3,4,4,2,3,4,2,3,3,3,3,2,4
Kassel,1988,2,1,2,7,1.67,64,4,2,5,0,2,NA,1,2,35.8,36.4,36.1,51.30560303,9.465194702,85,4,11:01:16,1,1,2,1,NA,1,NA,4,1,1,NA,6,4,2,1,2,5,1,NA,NA,1,1,NA,1,NA,NA,NA,NA,NA,NA,NA,NA,NA,NA,3,4,4,4,5,3,2,4,3,3,4,4,3,2,3,3,3,3,2,3,3,3,3,3,3,2,3,3,3,3,4,3,1,3,3,4,4,3,4,3,3,3,3,3,3,3,4,6,6,6,6,6,6,6,6,6,4,2,6,6,6,4,6,6,4,6,2,6,2,4,4,4,2,6,2,2,2,2,4,6,6,3,4,4,4,4,3,3,4,4,4,4,4,6,5,5,4,3,3,2,2,1,4,2,2,2,2,2,2,2,2,2,4,2,2,4,6,6,3,3,3,3,5,3,2,4,4,4,3,3,4,3,2,1,1,2,5,1,3,2,2,4,3,3,4,3,4,4,3,4,3,3,2,2,2,3,3,3,3,2,3,3,3,3,3,2,2,3,3,2,2,4,2,4,4,4,4,2,3
Zurich,1988,2,1,1,7,1.6,53,3,1,0,0,2,NA,1,2,36.1,36.2,36.15,46.98049927,7.478607178,63,7,10:23:56,1,1,1,1,NA,4,4,4,4,5,3,5,3,2,1,2,8,3,1,8,3,1,NA,2,Musikverein,NA,NA,NA,NA,NA,NA,NA,NA,NA,3,3,4,4,3,3,4,5,2,4,5,2,3,4,3,3,3,3,3,3,3,3,4,3,4,2,4,2,4,2,4,2,2,2,2,2,4,2,4,4,2,2,1,1,2,2,3,6,5,3,5,4,5,1,5,5,2,5,3,3,2,5,2,5,2,2,2,6,3,3,3,5,3,2,1,3,1,2,3,6,5,3,2,5,5,4,4,4,4,4,4,4,3,4,3,5,5,3,3,2,2,1,2,2,2,2,2,2,2,2,2,2,2,4,2,3,4,5,2,2,2,2,2,4,3,4,1,4,4,2,4,4,4,1,3,5,5,2,2,4,2,4,3,4,3,4,4,3,2,3,3,3,1,2,3,2,3,3,4,2,2,4,3,4,4,2,2,4,4,3,3,4,2,2,4,3,4,2,4
Oslo,1988,2,1,1,7,1.72,72,4,2,NA,NA,2,NA,1,2,36.2,36.4,36.3,60.14149475,11.17520142,94,-10,10:21:14,4,1,1,1,NA,4,4,4,2,5,2,8,8,1,NA,2,4,3,1,2,1,1,NA,1,NA,NA,NA,NA,NA,NA,NA,NA,NA,NA,2,3,4,4,3,4,2,3,2,4,5,4,4,2,2,4,2,1,2,3,2,2,2,2,5,2,2,1,1,1,4,2,2,3,2,3,4,3,3,2,4,2,3,1,1,1,2,4,3,2,1,5,3,3,3,5,1,3,2,1,3,1,4,2,2,2,4,3,4,4,3,1,4,6,5,3,4,3,1,4,4,2,4,5,5,5,5,5,4,3,4,4,4,7,5,4,4,5,4,2,4,1,4,2,2,4,4,4,2,3,4,3,2,3,3,4,6,6,1,4,2,2,1,4,2,3,3,5,2,2,4,4,2,1,2,3,4,2,4,3,2,2,3,4,5,4,4,4,3,3,4,3,1,1,2,3,4,4,4,2,2,2,4,4,4,3,2,4,4,5,5,3,2,4,4,3,3,4,4
METU,1988,1,1,1,7,1.73,59,2,2,12,NA,1,24,1,2,36.2,36.4,36.3,39.91169739,32.84030151,62,5,09:48:18,3,2,2,1,NA,3,3,4,1,2,1,4,2,1,NA,2,8,3,1,6,1,1,NA,2,??RENC?,KL?P,OKUMA,??RETMEN,EV,6,8,5,3,2,3,5,3,2,2,2,1,1,3,2,1,2,3,4,4,4,4,3,3,3,3,4,4,3,4,3,3,5,1,2,4,4,4,2,1,2,4,3,4,4,2,2,1,2,1,1,4,7,5,6,5,7,6,7,5,6,5,7,5,6,6,2,7,2,4,3,2,2,3,5,1,3,3,3,1,1,1,2,3,2,1,1,5,2,4,4,4,2,3,4,4,4,7,6,7,5,5,5,6,3,4,4,4,3,3,4,5,4,4,4,4,5,2,5,3,3,2,5,3,5,5,3,1,4,2,4,4,4,2,4,5,4,4,1,1,3,5,1,2,3,2,4,4,4,2,5,4,4,3,2,4,4,1,2,2,3,2,2,1,4,4,2,2,4,4,4,1,4,1,5,4,5,2,3,4,3,4,2,4
Kassel,1988,1,1,1,7,1.73,66,3,2,0,0,2,NA,1,2,36.3,36.5,36.4,51.31669617,9.5,53,12,10:51:12,1,1,2,1,NA,4,1,4,1,2,1,5,4,1,NA,2,8,1,NA,NA,2,1,NA,2,Meditationsgruppe,NA,NA,NA,NA,1,NA,NA,NA,NA,2,2,3,4,2,3,2,3,1,4,3,3,4,3,3,3,2,3,3,3,4,3,3,3,4,2,4,2,2,1,2,2,1,3,2,3,4,3,3,4,2,1,2,3,2,1,2,5,4,3,3,3,6,2,5,5,2,5,2,2,2,5,4,5,2,2,2,6,2,2,2,2,2,3,2,3,5,5,2,6,4,2,3,1,1,1,1,2,1,1,1,1,6,5,5,5,6,5,5,2,2,1,2,3,1,4,2,2,3,2,2,2,1,2,1,5,6,6,3,5,5,5,4,3,2,5,3,3,4,3,4,4,4,1,1,3,4,1,2,5,3,5,4,5,4,5,3,4,1,2,3,1,1,4,1,3,4,4,1,4,2,2,2,4,3,4,2,3,4,3,4,5,2,5,3,4,4,1,3
METU,1988,2,1,1,7,1.7,63,4,1,0,0,2,NA,1,2,36.5,36.3,36.4,39.91169739,32.84030151,66,4,10:57:55,3,2,1,1,NA,4,4,4,4,6,3,6,4,1,NA,1,NA,3,1,8,1,1,NA,1,NA,NA,NA,NA,NA,NA,NA,NA,NA,NA,3,4,4,4,5,4,3,2,3,3,4,5,5,2,4,3,2,3,3,2,3,2,2,3,4,2,2,4,4,4,4,4,2,4,4,4,5,4,5,5,5,1,1,1,2,2,5,3,1,1,5,6,2,2,3,2,2,2,1,1,1,1,3,2,1,2,2,1,1,1,1,1,1,1,1,1,1,1,1,1,1,2,2,5,5,4,5,5,5,5,5,4,6,6,6,6,6,5,5,3,4,1,3,4,1,4,3,3,3,2,2,2,2,4,1,4,6,6,2,4,4,2,2,2,2,5,4,2,2,2,4,5,4,1,2,4,4,3,5,2,2,4,2,4,4,4,4,4,4,3,4,4,1,2,1,1,4,4,4,1,1,4,2,4,4,4,3,3,4,4,4,2,2,4,4,3,3,4,4
METU,1988,2,1,1,7,1.71,64,3,2,2,0,2,NA,1,2,36.4,36.5,36.45,39.92300415,32.83779907,52,3,10:32:00,3,2,2,1,NA,4,4,2,1,4,4,5,2,1,NA,1,NA,3,1,8,1,2,4,2,NA,NA,NA,NA,NA,3,NA,NA,NA,NA,3,3,3,2,4,3,2,3,2,3,3,4,2,3,4,3,3,3,3,3,4,3,3,3,4,3,3,2,2,3,2,3,2,4,2,2,4,3,4,3,4,2,2,2,2,2,3,6,3,2,3,6,5,5,3,5,2,6,3,6,2,3,5,5,5,2,2,3,3,2,1,2,2,3,2,2,2,1,2,3,3,2,2,4,3,4,3,3,4,2,4,3,7,6,6,6,6,5,6,2,2,2,2,2,2,3,2,2,2,2,2,2,3,3,2,4,6,4,2,4,2,2,3,2,4,4,1,4,1,4,2,5,4,2,4,4,4,2,2,4,2,4,4,2,4,4,4,4,3,2,4,3,1,2,2,2,4,2,2,4,2,3,3,4,3,4,2,4,2,4,4,4,2,2,4,3,2,2,4
Bamberg,1988,2,2,1,3,1.66,58,3,2,2,0,2,NA,1,2,36.4,36.59,36.495,49.6000061,11.05000305,76,6,09:38:30,1,1,1,1,NA,4,4,4,1,3,2,8,5,1,NA,2,6,1,NA,NA,2,2,8,2,Kulturprojektgruppe,NA,NA,NA,NA,7,NA,NA,NA,NA,2,3,4,4,2,3,3,3,2,4,4,2,3,2,3,3,2,2,2,2,3,3,2,2,3,2,2,4,4,2,3,3,3,4,2,4,4,3,3,4,4,3,4,4,3,2,2,2,4,2,5,2,2,2,2,2,2,1,2,5,2,2,2,4,2,3,1,2,2,1,2,2,1,1,2,2,3,3,1,5,4,1,2,4,4,4,4,3,2,3,4,3,4,2,3,3,3,2,3,3,3,2,3,2,2,4,2,4,2,1,3,3,2,3,2,3,5,5,3,4,4,4,3,3,3,4,4,2,3,2,4,3,3,2,2,3,2,2,2,2,3,4,4,1,5,3,4,4,3,3,3,3,1,1,3,3,2,4,2,4,3,3,2,3,2,2,2,4,4,3,4,4,2,3,3,4,4,2,3
Serbia,1988,1,1,2,6,1.88,90,4,2,0,0,2,NA,1,2,36.5,36.5,36.5,44.81860352,20.46809387,54,11,11:19:18,6,1,2,1,NA,4,4,5,NA,2,2,8,8,2,1,2,3,3,1,2,1,2,3,2,projekat,projekat,projekat,NA,NA,1,2,1,NA,NA,5,4,4,3,4,4,3,3,3,4,4,5,5,4,4,4,2,3,3,3,3,3,2,3,5,4,3,1,1,1,2,1,1,1,1,2,1,2,1,2,1,1,1,1,1,1,1,3,2,4,5,5,5,4,8,NA,3,NA,5,4,2,2,5,5,2,4,4,8,1,3,1,3,5,3,4,4,6,4,3,6,6,4,4,5,3,4,5,5,2,3,3,3,2,4,4,4,5,5,3,1,3,1,4,1,1,4,3,2,2,1,1,1,1,2,1,3,4,5,1,4,4,4,2,4,5,2,1,1,1,3,2,5,2,1,2,2,4,4,5,4,3,4,3,3,3,3,3,3,1,5,4,2,4,2,3,1,2,4,3,4,2,3,2,4,3,1,3,3,1,3,4,4,4,4,1,3,1,2,1
METU,1988,2,1,1,7,1.67,68,4,2,0,0,2,NA,1,2,36.4,36.6,36.5,39.91169739,32.84030151,60,9,10:40:17,3,2,1,1,NA,4,4,4,4,8,4,8,8,1,NA,2,8,3,1,8,1,1,NA,1,NA,NA,NA,NA,NA,NA,NA,NA,NA,NA,4,5,5,3,5,4,3,2,3,4,4,5,4,2,3,3,2,3,4,2,3,2,2,2,4,2,2,3,3,3,3,4,3,4,1,4,4,3,4,4,4,1,1,2,3,1,4,5,3,1,1,5,2,2,1,3,1,3,1,2,1,2,3,2,1,1,1,2,1,1,1,1,1,2,1,1,2,1,2,1,2,1,1,5,5,5,5,5,4,4,5,5,3,5,4,4,4,3,4,1,1,1,1,1,2,2,2,1,2,2,3,3,1,3,3,4,4,4,4,3,4,3,3,2,4,4,2,2,4,2,2,4,3,3,4,4,3,3,4,4,5,5,3,3,5,5,5,5,5,4,5,5,1,1,2,1,4,5,4,4,2,3,3,5,3,4,2,4,3,4,3,4,1,5,5,3,3,3,3
Oxford,1988,1,1,2,7,1.85,84,1,1,0,0,2,NA,1,2,36.4,36.7,36.55,51.75,-1.25,86,0,09:15:33,5,1,2,1,NA,4,3,5,NA,1,NA,2,1,2,4,2,4,1,NA,NA,3,1,NA,1,NA,NA,NA,NA,NA,NA,NA,NA,NA,NA,2,1,1,4,4,3,1,1,1,1,1,1,3,5,4,5,3,4,3,3,3,3,4,4,5,4,4,4,4,4,4,2,2,4,2,4,2,2,3,2,2,2,4,2,2,4,2,6,6,6,5,5,6,4,5,6,4,5,4,4,4,5,5,6,2,3,5,5,3,2,3,4,3,5,3,3,5,2,4,5,4,4,3,2,2,2,1,3,1,2,2,1,6,7,7,7,6,6,5,3,4,2,2,4,4,4,4,2,3,2,2,2,2,2,2,4,7,5,5,5,5,5,2,2,1,4,3,4,3,2,3,4,2,2,2,3,4,2,3,3,2,3,3,3,4,3,3,3,1,3,3,1,3,5,3,2,3,4,3,2,2,3,4,3,4,2,2,3,4,2,2,3,4,4,4,4,3,2,4
Tsinghua,1988,1,1,2,7,1.75,65,3,2,0,0,2,0,1,2,36.5,36.6,36.55,39.92889404,116.3883057,22,8,10:37:20,7,3,2,1,0,4,2,5,0,8,1,8,4,1,1,2,3,1,1,3,1,1,4,2,NA,NA,NA,NA,NA,0,0,0,0,0,4,4,4,3,3,4,2,4,4,4,4,3,3,2,3,3,2,2,2,2,3,2,2,2,4,3,3,3,4,3,4,4,4,5,4,4,4,4,4,4,4,4,3,3,4,4,4,6,3,5,6,5,6,5,5,3,2,5,6,5,5,5,6,6,2,5,3,6,2,3,6,5,3,3,3,3,2,2,6,2,3,3,2,5,4,5,5,5,4,5,5,5,3,2,3,6,6,6,5,4,4,3,2,4,3,4,3,4,3,2,1,4,2,4,2,4,2,6,4,2,4,5,2,3,3,4,2,4,2,3,4,3,4,2,3,4,2,2,4,4,2,3,4,4,4,2,4,4,3,3,4,4,4,3,4,3,4,4,4,3,2,4,4,3,4,4,4,4,3,3,4,4,4,4,4,5,5,4,3
Serbia,1988,2,1,1,7,1.77,60,5,2,0,0,1,2,1,2,36.5,36.7,36.6,44.81860352,20.46809387,53,6,10:38:47,6,1,1,1,NA,4,4,2,2,4,1,6,2,1,NA,2,8,1,NA,NA,1,1,NA,1,NA,NA,NA,NA,NA,NA,NA,NA,NA,NA,4,3,4,5,2,4,4,1,4,4,4,4,4,2,2,3,2,2,2,2,2,2,2,3,4,2,2,3,1,2,2,1,1,3,1,4,3,3,3,2,2,2,3,3,2,2,3,1,1,1,1,1,1,1,1,1,1,1,1,1,1,1,1,1,1,1,1,1,1,1,1,1,1,1,1,1,1,1,1,4,4,1,1,5,5,5,5,5,3,3,5,3,3,5,5,5,5,5,5,1,1,1,1,1,2,1,1,1,1,1,2,1,2,2,2,3,3,5,1,2,2,2,1,3,1,4,1,3,3,2,2,5,3,4,3,2,4,3,4,4,4,5,5,3,5,5,1,1,2,3,4,4,2,3,1,1,3,3,3,1,2,2,2,4,2,1,2,3,3,4,3,3,4,4,3,3,3,3,3
Serbia,1988,2,1,1,7,1.74,62.2,5,2,NA,0,2,NA,1,2,36.5,36.8,36.65,44.81860352,20.46809387,57,6,09:03:10,6,1,1,3,1,4,2,4,4,8,3,8,8,1,NA,2,8,3,1,8,5,1,NA,1,NA,NA,NA,NA,NA,NA,NA,NA,NA,NA,4,5,5,5,4,3,5,1,3,5,5,4,2,1,2,2,2,1,2,2,2,2,2,2,3,1,1,2,2,1,3,2,1,1,1,4,3,3,1,3,1,1,1,1,1,1,1,2,1,2,1,2,1,2,2,7,1,NA,2,2,2,1,1,1,2,2,NA,3,NA,4,2,2,NA,NA,NA,NA,1,NA,2,4,4,NA,4,4,5,4,5,5,3,2,3,4,1,2,2,2,2,2,2,1,1,1,2,2,1,1,1,1,1,1,3,4,1,2,3,2,3,3,1,3,3,3,3,1,3,4,1,3,4,3,3,4,2,2,2,2,2,2,4,3,3,4,4,3,3,4,1,1,2,2,3,3,4,4,2,1,1,3,4,3,4,3,3,4,2,1,3,5,4,2,2,4,2,3,3,2,2,4,1
METU,1988,2,4,1,7,1.65,63,3,2,10,2,2,NA,1,2,36.7,36.7,36.7,39.91169739,32.84030151,66,4,10:40:12,3,2,2,1,NA,4,4,4,1,5,5,7,7,1,NA,2,8,3,1,8,4,1,NA,2,korev,NA,NA,NA,NA,7,NA,NA,NA,NA,2,4,3,2,2,2,1,2,2,3,4,3,3,2,3,3,2,2,2,1,2,2,2,3,4,2,2,1,1,1,1,1,1,1,1,1,1,2,2,3,2,1,1,1,1,1,2,7,5,2,6,5,6,5,5,5,2,5,4,3,4,5,5,5,2,1,1,3,2,3,3,5,1,1,2,3,3,2,5,2,5,1,4,4,3,4,4,2,5,5,5,3,6,3,3,3,3,3,3,3,2,2,2,2,2,2,3,2,2,2,2,2,2,4,2,5,7,6,6,4,7,7,1,2,3,5,5,5,5,5,5,2,3,1,1,2,5,2,4,3,3,4,4,3,4,5,4,4,2,4,4,1,2,5,2,3,5,4,4,4,2,3,3,4,2,4,1,4,1,5,5,5,4,4,3,4,3,2,4
Oxford,1988,2,1,1,4,1.75,55,3,2,0,2,2,NA,2,2,36.9,37,36.95,51.75,-1.25,89,-1.666666667,08:55:14,5,1,1,1,NA,4,4,5,NA,1,NA,5,1,1,NA,1,NA,3,8,4,1,1,NA,2,NA,NA,NA,NA,NA,NA,NA,NA,NA,NA,2,4,2,1,1,2,1,2,3,4,3,2,2,3,3,4,2,3,2,3,2,3,3,4,3,3,2,2,4,3,2,3,2,3,4,4,1,1,2,3,2,2,2,1,2,4,2,3,6,6,5,4,4,3,3,4,4,6,5,6,5,5,5,6,5,5,5,5,4,3,4,6,3,3,4,5,3,4,5,3,2,3,4,5,4,5,5,4,2,2,4,4,2,5,3,4,5,2,4,2,3,4,5,3,4,2,4,4,3,2,2,4,2,4,3,5,4,3,1,2,2,2,4,2,3,3,4,4,3,3,3,2,2,2,2,4,4,5,2,2,2,3,3,3,4,4,2,2,3,2,4,3,4,3,2,4,3,4,3,4,3,2,3,2,3,4,3,2,3,4,4,4,5,3,3,3,2,2,4
Oxford,1989,1,1,1,4,1.778,77.27272727,3,1,5,0,1,7,1,1,34.3,36.5,35.4,51.75,-1.25,74,2.777777778,08:16:01,5,1,2,1,NA,2,2,5,NA,5,2,4,1,1,NA,2,4,1,NA,NA,3,1,NA,1,NA,NA,NA,NA,NA,NA,NA,NA,NA,NA,3,4,4,4,3,2,3,3,2,5,3,4,2,3,3,3,2,3,2,2,2,5,5,3,2,3,3,4,4,2,3,4,2,3,3,5,3,3,3,3,3,3,3,3,3,3,3,4,3,3,4,4,4,3,5,5,4,5,2,4,2,4,4,2,3,4,2,3,2,3,4,4,4,3,4,4,5,3,4,4,2,5,3,3,3,2,4,5,5,2,4,3,6,5,4,1,3,5,4,3,2,1,2,2,4,2,4,3,3,3,3,2,3,2,2,5,8,4,2,2,2,2,3,3,3,4,4,4,3,3,3,3,2,3,4,3,3,2,3,4,2,3,4,2,4,3,2,3,4,2,3,3,4,2,3,4,3,2,3,2,3,4,2,3,3,4,3,3,2,4,2,3,3,4,3,2,2,3,4
METU,1989,2,1,2,7,1.71,69,3,1,3,0,2,NA,1,2,36.3,35.6,35.95,39.91169739,32.84030151,64,2,11:09:44,3,2,2,1,NA,3,3,5,NA,8,5,7,5,1,NA,2,8,1,NA,NA,1,1,NA,1,NA,NA,NA,NA,NA,NA,NA,NA,NA,NA,4,4,3,4,4,3,2,2,3,4,3,3,4,3,3,3,4,3,3,3,3,4,3,4,3,3,3,3,2,2,2,3,2,2,2,2,3,2,3,4,3,2,2,2,2,2,2,4,4,4,4,4,4,4,4,4,4,4,4,4,4,4,4,4,4,5,4,4,4,4,4,4,4,4,4,4,4,4,4,4,4,4,4,5,5,5,5,5,3,4,3,2,6,6,6,5,5,6,5,3,4,2,4,4,3,4,3,2,4,3,3,3,2,3,3,5,6,6,2,3,2,3,4,2,5,4,1,3,2,2,2,4,4,2,4,4,3,4,3,3,2,3,3,4,3,3,4,3,4,3,3,4,3,2,3,3,4,3,4,3,2,3,4,4,4,3,2,3,3,3,3,4,4,3,3,3,3,4,2
Chile,1989,1,1,1,6,1.8,72,4,2,0,0,1,NA,1,2,35.9,36.2,36.05,33.44999695,-70.66670227,79,12,11:17:04,2,1,2,1,NA,4,4,5,NA,8,4,7,4,1,NA,1,NA,4,1,2,5,1,NA,1,NA,NA,NA,NA,NA,NA,NA,NA,NA,NA,5,2,3,5,3,5,5,4,5,5,5,5,5,2,2,2,2,3,2,2,2,2,2,1,4,1,2,4,3,1,3,3,2,2,4,4,4,4,4,4,4,1,4,1,5,1,4,3,5,2,1,3,5,2,3,5,5,2,2,5,1,2,7,2,4,6,5,6,2,3,3,3,3,5,4,6,5,3,3,5,6,2,6,5,5,5,5,5,5,5,5,5,2,3,2,1,1,1,1,3,4,1,4,2,2,3,2,4,2,1,1,3,2,4,1,3,2,1,1,1,2,1,1,4,4,4,4,1,3,1,5,2,4,1,1,4,2,1,2,5,3,4,5,1,3,2,4,4,4,3,4,3,4,3,3,5,1,2,5,1,1,5,5,3,4,1,4,1,2,1,3,5,1,5,1,5,5,1,1
METU,1989,1,1,1,6,1.76,63,4,2,59,NA,2,NA,1,2,36,36.1,36.05,39.91169739,32.84030151,58,7,10:58:09,3,2,4,1,NA,4,4,4,1,1,NA,8,8,1,NA,2,1,3,1,5,1,1,NA,1,NA,NA,NA,NA,NA,NA,NA,NA,NA,NA,2,2,2,2,2,2,5,1,2,4,3,2,2,3,3,2,3,2,3,3,3,4,5,2,2,3,2,2,3,4,4,5,3,2,1,4,4,4,4,4,4,1,1,2,2,2,4,6,2,2,3,2,7,3,5,3,2,6,2,2,6,2,6,2,1,2,2,2,2,2,1,1,2,2,3,2,1,2,2,2,2,2,2,4,2,4,4,2,4,4,4,4,4,6,6,6,5,5,5,2,3,4,3,4,2,4,2,2,2,2,2,1,2,2,2,5,6,1,1,3,2,2,3,3,4,4,2,2,2,2,2,4,2,1,4,3,3,2,2,4,4,4,4,3,4,4,4,5,2,4,4,2,2,4,1,2,2,4,2,2,3,2,4,4,2,3,2,4,2,4,4,4,1,4,2,2,3,2,2
Oxford,1989,1,1,1,7,1.7272,80,3,2,0,0,2,NA,1,2,35.8,36.6,36.2,51.75,-1.25,71,1.666666667,08:06:22,5,1,2,1,NA,4,4,4,1,6,2,3,3,1,NA,2,2,1,NA,NA,1,1,NA,1,NA,NA,NA,NA,NA,NA,NA,NA,NA,NA,1,2,1,2,4,3,2,1,4,2,2,4,3,4,3,4,2,3,2,4,4,4,2,3,4,4,3,5,4,4,4,4,4,5,5,5,4,3,4,4,4,4,2,4,5,4,4,4,3,3,4,4,3,4,3,3,3,3,5,7,2,3,3,4,4,3,3,3,3,2,4,4,3,4,4,3,2,3,5,3,2,2,2,5,4,4,5,4,4,4,5,5,5,6,6,5,5,5,3,4,5,2,3,2,3,4,3,5,4,4,3,3,3,5,3,3,4,3,3,2,3,3,4,4,2,4,2,3,4,4,2,4,2,2,2,4,4,4,4,5,1,2,4,4,3,4,3,4,4,4,4,3,3,4,4,3,4,4,3,4,4,4,3,4,4,3,3,3,4,4,3,4,4,4,2,2,3,3,4
METU,1989,2,1,1,7,1.67,56,4,2,NA,NA,2,NA,1,2,36.1,36.4,36.25,39.92300415,32.83779907,52,3,10:36:53,3,2,2,1,NA,4,4,4,1,5,1,6,3,1,NA,1,NA,3,1,8,1,1,NA,1,NA,NA,NA,NA,NA,NA,NA,NA,NA,NA,4,4,4,4,3,4,3,2,3,5,5,3,3,4,3,4,1,2,1,2,3,3,1,4,3,3,2,2,2,2,1,1,1,2,1,1,4,3,4,4,4,1,1,1,1,1,4,6,2,1,5,6,5,6,2,2,4,2,5,2,4,1,6,1,1,2,2,3,2,2,2,2,3,2,1,2,2,2,2,3,3,2,2,5,5,5,5,5,5,5,5,5,3,4,4,3,4,3,3,4,2,2,2,2,2,4,2,3,2,4,2,4,1,3,1,4,4,5,2,2,1,1,1,4,5,5,2,5,5,5,5,4,2,1,5,2,4,4,5,5,5,4,2,2,5,5,5,5,5,5,5,5,1,3,1,2,2,4,5,2,1,3,5,5,3,5,1,5,2,4,5,5,4,4,2,4,2,2,4
Portugal,1989,1,1,2,1,1.83,81,4,2,36,0,2,NA,1,2,36.4,36.1,36.25,38.71670532,-9.133300781,73,13,11:47:25,8,1,3,1,NA,2,2,5,1,8,8,3,3,2,1,2,8,3,1,8,8,1,NA,1,NA,NA,NA,NA,NA,NA,NA,NA,NA,NA,5,5,5,1,1,5,5,5,5,5,5,5,5,2,2,3,2,1,1,1,2,1,1,3,5,1,2,3,4,3,4,2,3,2,3,2,4,3,2,3,4,1,1,1,2,2,2,1,1,1,3,1,3,3,3,7,1,5,1,1,3,3,1,3,3,6,5,3,7,1,3,3,1,1,2,2,7,4,3,7,7,1,5,5,3,5,5,5,3,3,5,3,4,7,7,7,7,7,7,1,5,1,2,1,1,1,1,4,1,1,3,3,1,4,1,1,2,1,1,1,3,1,4,1,2,5,3,3,3,3,2,1,2,3,3,4,1,5,2,2,4,5,4,3,3,2,1,3,4,3,2,1,1,1,3,1,3,5,1,2,1,1,1,5,3,3,2,3,4,3,5,2,2,1,1,2,3,3,1
Tsinghua,1989,1,1,1,5,1.78,65,3,2,0,0,2,0,1,2,36.2,36.4,36.3,39.92889404,116.3883057,22,8,10:40:25,7,3,1,1,0,4,1,5,0,3,1,3,8,1,1,2,8,1,1,7,1,2,1,2,NA,NA,NA,NA,NA,NA,NA,NA,NA,NA,4,5,5,4,4,4,3,4,2,5,4,4,2,4,4,4,3,2,2,3,3,3,3,4,4,2,4,4,2,2,4,4,4,2,4,4,4,4,4,4,4,4,3,4,2,2,4,5,2,2,6,6,2,2,3,2,2,6,3,2,3,2,3,3,3,5,2,2,2,6,2,2,2,2,3,2,5,2,2,3,5,2,2,4,4,4,4,4,4,4,4,4,6,2,2,6,6,6,6,2,2,4,2,2,4,2,2,2,2,2,2,2,2,3,2,4,2,6,2,2,1,2,2,2,4,4,2,2,2,2,2,4,4,2,4,4,2,2,2,2,2,2,4,4,2,2,2,4,4,2,4,4,2,2,2,4,4,4,4,2,2,4,4,4,4,2,2,4,2,2,2,4,2,4,2,4,4,2,2
Oxford,1989,2,1,1,6,1.6,45,3,2,0,0,2,NA,1,2,36.5,36.3,36.4,51.75,-1.25,74,2.777777778,08:02:39,5,1,1,1,NA,4,4,4,1,4,3,4,3,1,NA,2,4,1,NA,NA,3,1,NA,1,NA,NA,NA,NA,NA,NA,NA,NA,NA,NA,4,3,3,3,2,3,2,2,2,4,4,2,3,3,3,3,3,2,2,2,3,2,4,4,5,2,3,2,2,2,2,2,2,4,2,4,4,2,4,2,4,2,2,2,2,2,2,4,4,2,5,6,3,4,5,2,2,3,5,3,3,3,6,5,6,3,2,5,2,3,3,3,2,3,2,2,3,2,3,5,5,2,2,4,5,4,4,4,4,4,4,4,3,5,5,3,2,2,3,2,4,4,3,2,4,4,2,4,2,2,2,4,2,2,2,5,7,6,1,4,1,4,3,3,2,4,2,4,4,3,4,4,2,2,2,4,4,2,3,4,4,4,4,4,4,4,4,4,3,3,4,3,2,3,2,4,4,4,2,3,2,4,2,4,4,2,2,4,4,3,3,3,2,4,4,3,3,2,3
Oxford,1989,2,1,1,7,1.6764,61,4,2,1,0,2,NA,1,2,36,36.8,36.4,51.75,-1.25,88,-2.222222222,08:23:37,5,1,4,1,NA,4,2,4,1,1,NA,8,8,1,NA,2,4,1,NA,NA,1,1,NA,1,NA,NA,NA,NA,NA,NA,NA,NA,NA,NA,4,2,2,3,2,2,2,2,2,2,4,4,4,2,2,3,2,1,1,1,2,2,1,3,5,1,3,2,4,2,4,2,2,3,2,3,2,3,2,2,1,1,1,1,2,2,2,2,2,2,2,2,2,1,3,6,2,6,2,1,2,2,1,2,1,2,2,2,2,2,1,2,1,6,2,2,2,1,2,2,2,2,2,4,4,4,4,2,2,2,2,2,2,3,3,3,3,4,2,2,2,2,2,2,1,2,2,2,2,1,2,3,2,4,3,4,3,3,3,3,2,2,2,4,4,4,2,4,4,4,4,4,4,1,4,4,4,3,2,4,2,4,5,3,3,3,4,4,2,2,3,2,1,3,2,3,2,4,2,3,2,3,3,2,2,2,2,2,4,4,4,2,4,4,2,4,4,4,4
Oxford,1989,1,3,1,1,1.7,68,4,2,1,0,1,1,1,2,36.3,36.5,36.4,51.75,-1.25,71,1.666666667,09:28:38,5,1,1,1,NA,4,4,4,3,4,3,8,8,1,NA,1,NA,2,1,2,2,1,NA,1,NA,NA,NA,NA,NA,NA,NA,NA,NA,NA,1,3,3,2,1,2,1,2,1,2,3,3,4,3,2,3,2,1,2,3,4,1,2,4,5,2,3,2,4,4,4,2,1,3,3,5,4,2,5,4,4,1,2,2,1,1,4,3,3,1,4,2,7,1,3,2,1,5,3,4,6,5,2,5,2,1,1,3,3,2,2,2,2,1,1,2,1,1,2,5,3,5,2,5,4,4,3,5,5,3,4,5,6,6,7,7,7,5,6,2,2,3,2,3,2,2,1,2,2,1,2,1,1,2,1,4,7,4,3,4,3,5,4,2,5,5,4,3,4,2,2,5,2,1,4,3,3,4,2,4,5,4,4,1,5,4,4,4,4,5,4,4,1,2,2,2,2,5,2,4,1,2,2,4,2,4,3,4,3,4,5,4,3,2,2,3,4,1,2
Kassel,1989,2,4,2,4,1.68,47,4,2,0,0,2,NA,1,2,36.42,36.41,36.415,50.09770203,8.671096802,91,2,10:00:34,1,1,2,1,NA,4,2,5,NA,2,1,3,2,1,NA,2,4,3,1,2,1,2,2,1,NA,NA,NA,NA,NA,NA,NA,NA,NA,NA,5,4,4,4,4,4,3,4,4,3,5,4,4,2,3,3,2,2,2,2,3,2,2,3,4,2,2,3,3,2,4,2,2,3,3,3,4,3,2,3,3,2,2,2,3,1,3,5,4,4,5,6,5,4,4,5,3,4,4,4,4,4,3,6,3,4,3,6,3,3,3,2,4,4,2,2,4,3,3,6,4,2,4,4,4,4,4,3,4,4,4,3,7,5,6,6,5,5,5,2,4,2,3,3,2,3,3,2,2,2,2,2,1,3,1,5,6,5,2,4,6,6,1,3,1,5,4,3,1,2,4,2,2,1,1,3,4,2,3,3,1,4,4,4,3,3,4,4,3,3,4,3,2,2,2,2,2,3,3,3,4,3,3,4,3,2,3,4,4,3,2,3,2,3,2,3,3,2,4
Chile,1989,2,1,1,7,1.63,44,3,2,2,0,1,NA,1,2,36.4,36.5,36.45,40.75450134,14.63920593,21,13,11:12:04,2,1,1,1,NA,4,2,4,1,1,NA,1,1,1,NA,2,3,4,1,2,2,1,NA,1,NA,NA,NA,NA,NA,NA,NA,NA,NA,NA,4,2,4,3,2,4,1,3,2,2,5,4,5,4,3,3,3,2,4,3,2,2,4,3,4,3,2,4,4,3,4,2,1,2,2,2,4,4,4,4,4,1,1,1,4,1,4,1,1,1,6,1,6,2,2,2,2,1,2,1,1,1,5,5,2,5,3,3,2,1,2,1,2,1,1,1,2,1,2,6,3,1,3,4,5,4,5,5,3,3,2,4,5,5,5,7,6,5,5,3,1,1,1,3,4,1,1,1,2,2,3,2,1,1,1,4,4,5,1,3,3,2,1,4,3,5,2,2,2,2,5,5,2,1,4,4,2,2,4,4,1,3,5,5,4,4,4,4,4,3,4,4,1,1,4,1,5,4,4,1,2,5,4,2,4,3,3,1,4,3,3,2,4,1,2,1,3,2,4
Chile,1989,2,1,1,7,1.63,44,2,2,0,0,1,NA,1,2,36,37,36.5,40.90829468,14.34989929,67,8,11:02:02,2,1,1,1,NA,4,2,4,1,1,NA,1,1,1,NA,2,2,4,2,2,2,1,NA,1,NA,NA,NA,NA,NA,NA,NA,NA,NA,NA,4,2,3,5,3,4,1,4,2,2,5,3,5,4,2,4,4,4,2,4,3,2,4,3,5,3,3,2,3,2,4,2,2,3,4,4,5,5,5,5,5,2,3,3,5,4,5,1,1,1,1,2,1,2,3,2,2,5,1,1,1,1,6,5,3,5,2,6,2,7,1,1,1,1,1,1,2,1,1,7,3,1,2,5,5,5,5,5,3,2,4,4,6,7,5,6,6,5,5,3,1,2,1,2,3,4,1,1,2,2,2,2,1,1,1,4,4,4,3,3,4,4,1,5,2,4,3,2,2,2,4,4,2,1,3,3,4,2,4,4,2,4,5,5,4,4,4,4,4,3,4,4,1,1,4,2,5,5,5,1,3,5,4,4,5,2,3,5,5,2,3,2,4,2,2,2,4,2,4
METU,1989,2,1,1,5,1.73,82,4,2,0,0,1,15,1,2,36.3,36.7,36.5,39.91169739,32.84030151,74,12,11:03:33,3,2,2,1,NA,4,4,4,4,5,3,8,4,1,NA,2,8,1,NA,NA,1,1,NA,1,NA,NA,NA,NA,NA,NA,NA,NA,NA,NA,4,2,4,4,3,2,1,3,4,4,3,3,2,3,4,4,3,2,2,3,3,3,2,4,3,2,3,3,4,2,4,3,2,4,3,5,4,4,4,4,4,4,4,3,4,2,4,7,4,4,5,3,6,4,6,4,3,4,4,2,4,2,5,4,2,7,5,6,3,5,3,4,2,4,3,4,3,3,5,2,2,2,2,5,4,4,5,5,4,5,5,5,6,4,6,5,7,4,5,5,3,1,2,2,2,2,2,2,1,5,2,4,2,1,2,4,4,5,2,4,2,2,4,2,5,4,1,1,2,4,1,5,5,4,4,5,1,5,1,4,4,4,4,4,3,2,2,5,5,3,4,4,1,1,1,1,4,3,5,4,1,2,2,4,3,1,4,4,4,3,4,4,3,2,2,4,3,2,2
Tsinghua,1989,2,1,1,7,1.7,70,3,2,6,0,2,0,1,2,36.4,36.7,36.55,39.92889404,116.3883057,51,7,10:39:07,7,3,2,1,0,4,4,5,0,7,3,5,5,2,6,2,8,2,3,3,2,2,1,1,Ó°ÃÔÍÅÌå,NA,NA,NA,NA,3,NA,NA,NA,NA,3,2,2,5,3,5,2,4,3,4,3,2,5,3,3,3,3,3,3,3,3,3,4,3,3,3,2,4,4,4,4,4,4,4,4,4,3,4,2,4,2,4,4,4,3,3,3,5,2,3,3,4,5,5,5,3,2,3,2,5,2,5,4,6,2,2,3,5,3,5,3,5,4,5,4,4,6,3,6,3,5,5,3,3,3,4,4,2,4,4,4,3,4,2,4,6,6,6,6,2,4,2,2,3,2,4,2,3,2,2,2,1,2,3,1,5,7,6,6,6,6,3,2,4,4,4,2,2,3,2,3,4,3,2,4,4,3,2,4,4,2,2,5,5,3,4,3,4,3,3,3,2,3,4,3,4,4,4,4,3,1,4,4,4,4,3,2,4,4,4,4,5,4,4,4,4,4,2,4
Kassel,1989,2,1,1,7,1.71,69,4,2,26,0,2,NA,1,2,36.5,36.7,36.6,51.19999695,9.383300781,88,0,10:53:36,1,1,2,1,NA,4,2,5,NA,4,3,6,6,2,1,2,8,1,NA,NA,3,1,NA,2,Kraftsportgruppe,Ausdauersportgruppe,Hundetreffgruppe,Keine,Keine,4,4,3,0,0,3,3,3,3,5,3,4,4,4,3,5,5,3,2,2,3,2,1,1,1,3,2,1,2,5,1,1,3,2,1,4,3,1,3,4,2,3,1,3,2,1,1,2,1,2,1,3,3,1,1,4,5,1,1,1,1,1,1,1,1,4,2,1,1,1,1,1,1,2,1,1,1,1,1,1,2,1,2,1,7,7,1,1,5,4,4,5,5,5,1,5,5,2,2,2,3,2,2,2,1,2,1,2,1,1,1,2,1,1,2,4,2,1,3,3,5,5,4,5,2,4,4,1,5,3,3,1,3,3,1,3,5,4,1,3,5,5,2,1,4,2,4,3,5,4,5,5,5,3,2,4,3,1,1,1,3,1,3,4,1,5,2,4,2,1,1,3,3,4,4,3,2,2,2,4,2,4,1,1
Poland,1989,2,1,1,7,1.7,51,3,1,2,4,2,NA,1,2,37,36.5,36.75,50.3500061,18.96670532,65,-2,09:52:51,9,1,4,1,NA,4,4,4,1,5,5,3,3,1,NA,2,8,6,1,2,2,1,NA,1,NA,NA,NA,NA,NA,NA,NA,NA,NA,NA,4,4,2,4,5,3,2,4,3,2,4,4,2,3,3,4,4,3,3,3,3,3,4,5,4,5,4,4,2,2,4,3,1,2,4,4,4,4,4,4,4,1,1,1,2,2,4,6,6,5,6,6,6,2,5,5,1,1,3,2,2,5,5,6,1,3,3,7,2,2,5,5,7,5,2,2,6,6,5,2,7,5,2,4,4,2,4,4,4,3,4,4,5,5,4,4,6,5,5,2,2,4,3,4,4,4,2,4,2,1,2,2,2,2,2,5,6,5,2,4,4,4,1,4,1,5,2,4,2,3,4,5,3,1,3,5,5,2,4,4,3,3,4,4,4,4,3,3,3,2,4,3,3,2,2,1,1,4,1,3,4,4,5,4,4,1,2,1,4,4,4,2,4,4,2,3,4,1,2
METU,1989,2,1,1,6,1.59,53,4,2,0,0,2,NA,1,2,36.8,36.7,36.75,39.91169739,32.84030151,52,8,10:42:24,3,2,1,1,NA,4,4,4,2,1,NA,7,5,1,NA,2,8,2,1,8,8,2,8,1,NA,NA,NA,NA,NA,NA,NA,NA,NA,NA,2,4,5,4,5,5,2,5,2,3,5,5,5,3,3,2,2,2,3,2,4,2,2,3,2,3,3,4,4,4,4,4,1,4,1,1,5,2,5,5,5,2,2,2,2,2,5,6,2,1,2,3,1,2,2,5,1,5,1,1,1,1,3,1,1,2,3,2,2,1,5,3,2,2,2,3,2,2,3,3,2,2,3,4,4,4,4,4,4,3,4,4,3,3,3,3,3,3,3,1,1,1,2,1,2,1,1,1,1,1,2,1,2,1,2,5,8,5,1,2,1,1,2,2,4,4,1,4,2,4,4,5,5,1,2,4,4,1,4,4,4,4,2,2,4,5,5,5,5,5,5,5,1,1,1,2,4,3,5,2,2,4,2,4,2,2,1,2,2,5,5,5,1,5,4,5,4,1,2
Kassel,1989,2,1,1,7,1.86,108,3,2,37,4,2,NA,1,2,36.7,36.9,36.8,48.96670532,9.133300781,83,5,10:20:15,1,1,1,1,NA,4,4,4,1,6,2,5,3,2,1,1,NA,3,8,8,5,1,NA,1,NA,NA,NA,NA,NA,NA,NA,NA,NA,NA,2,3,4,5,1,2,1,2,3,3,4,2,4,3,3,4,2,2,2,3,4,3,4,5,5,2,4,1,4,1,4,1,1,1,1,1,4,4,1,4,1,1,1,1,1,1,2,2,2,1,2,1,1,2,1,1,1,2,1,1,5,1,2,1,1,1,1,5,1,1,1,1,1,1,1,1,1,1,1,5,5,1,2,4,5,5,5,5,5,1,3,2,6,5,5,5,5,4,5,1,1,1,1,1,1,1,1,1,1,2,1,2,2,1,1,5,8,7,7,6,2,5,2,4,3,3,1,3,2,1,3,5,4,1,4,5,2,4,2,4,5,5,3,2,4,5,5,5,5,4,5,5,1,1,1,3,1,4,4,1,1,4,4,5,1,3,1,4,4,4,4,5,1,2,5,5,3,1,5
Bamberg,1989,2,1,2,7,1.7,82,2,2,4,2,2,NA,1,2,37,37.3,37.15,49.30000305,11.11669922,86,1,10:05:31,1,1,2,1,NA,4,4,5,NA,3,1,5,4,2,2,2,6,1,NA,NA,1,2,4,2,Fachschaft,NA,NA,NA,NA,4,NA,NA,NA,NA,1,1,3,3,2,3,1,2,3,2,4,3,4,5,5,5,4,3,4,4,5,3,4,4,5,3,4,1,4,1,1,3,2,4,1,3,3,2,1,2,2,1,1,1,1,1,4,4,3,6,5,5,5,2,7,5,5,6,7,1,4,7,4,7,4,5,3,4,4,6,5,4,5,6,3,4,5,5,5,7,7,2,6,5,4,4,4,4,3,1,3,3,6,7,7,7,6,5,6,3,4,2,4,3,4,4,3,4,5,3,2,2,2,5,2,4,5,6,5,4,4,4,4,2,3,4,4,1,3,1,2,3,2,1,2,2,2,3,4,1,1,4,3,4,4,3,3,1,2,1,1,1,1,1,2,2,3,4,3,2,3,3,4,3,4,3,3,5,5,2,2,2,2,2,4,3,3,4,3
Bamberg,1989,2,1,1,7,1.72,73,3,2,1,0,1,7,1,2,37.3,37,37.15,48.11669922,11.54780579,67,5,16:09:46,1,1,1,1,NA,4,4,4,2,3,1,6,3,2,1,2,6,3,1,7,2,1,NA,1,NA,NA,NA,NA,NA,NA,NA,NA,NA,NA,5,4,4,5,2,3,4,4,4,3,4,5,3,4,3,4,3,2,3,3,4,3,3,4,4,2,2,4,4,2,4,2,2,2,2,4,4,4,2,4,2,2,4,4,2,4,2,1,1,1,1,4,1,1,1,7,1,7,1,1,1,1,4,1,1,1,1,4,1,1,1,1,2,1,1,1,1,2,1,7,4,1,1,5,5,5,5,5,5,5,5,5,3,1,3,1,1,2,3,2,2,2,2,2,2,2,2,2,2,2,2,2,2,4,2,5,8,4,3,2,3,7,3,3,1,5,5,3,3,3,4,2,2,2,2,3,2,2,5,5,2,4,3,5,4,5,5,5,3,3,5,5,1,3,3,1,5,3,4,2,2,3,4,4,4,3,2,4,4,3,4,3,2,4,2,2,4,3,3
Tsinghua,1989,1,1,2,7,1.75,90,2,2,0,0,2,0,1,2,37.2,37.2,37.2,39.92889404,116.3883057,22,8,11:03:59,7,3,2,1,0,2,2,5,0,3,3,5,5,2,8,1,2,3,1,3,3,2,1,2,½Ì»á,¹«Ë¾²¿ÃÅ,Ð£Ô°ÍÅÆõ,NA,NA,10,15,8,NA,NA,3,3,4,2,3,2,2,1,3,2,4,3,4,3,3,2,3,3,3,4,2,4,3,3,3,3,2,2,2,2,2,3,3,4,4,4,4,4,3,4,3,4,3,4,3,3,4,3,3,5,5,5,3,4,4,5,5,3,4,4,3,5,3,6,4,4,3,3,4,4,2,3,5,4,3,4,4,4,3,5,3,5,3,3,4,4,3,4,4,4,3,4,4,2,2,5,5,5,6,4,2,4,4,4,4,4,4,4,4,2,2,2,4,4,2,4,4,4,2,3,2,3,2,2,2,4,4,3,2,2,3,2,4,4,2,3,4,2,2,2,2,2,4,4,2,2,2,4,4,4,4,3,2,2,3,4,4,3,2,4,3,2,4,2,3,2,4,4,4,2,2,3,2,4,2,4,4,4,2
Poland,1989,2,1,1,7,1.65,60,4,2,36,0,2,NA,1,2,38.1,38.1,38.1,54.36079407,18.65829468,81,3,11:11:17,9,1,1,1,NA,4,4,4,4,8,8,6,6,1,NA,2,3,2,1,1,1,1,NA,2,p?ywanie,NA,NA,NA,NA,1,NA,NA,NA,NA,2,2,4,5,4,4,2,2,2,4,3,3,3,2,3,3,4,4,4,4,3,4,3,3,4,5,3,3,3,2,3,1,2,2,2,1,3,4,4,3,4,1,1,1,2,2,3,2,2,1,2,5,3,2,2,2,1,7,2,2,3,1,5,4,2,2,2,5,2,2,2,2,2,6,2,2,3,4,2,6,4,2,3,4,4,4,5,4,3,2,2,2,3,2,1,2,3,3,2,2,3,1,3,3,2,3,2,3,2,2,2,2,2,2,2,4,6,5,2,3,2,2,4,4,2,4,3,4,3,2,4,3,4,2,3,4,4,2,4,2,2,4,3,4,2,5,4,4,4,4,4,4,1,1,2,1,2,2,2,2,3,3,2,3,4,4,2,3,3,3,3,4,3,4,4,4,4,2,4
Oxford,1990,1,1,1,7,1.72,65,3,2,1.14,0,2,NA,1,2,34.6,36.2,35.4,51.75,-1.25,89,-1.666666667,08:10:40,5,1,2,1,NA,4,4,4,1,2,2,5,1,1,NA,1,NA,3,1,8,5,1,NA,1,NA,NA,NA,NA,NA,NA,NA,NA,NA,NA,2,2,3,4,2,3,2,2,2,3,4,2,5,2,3,3,3,2,2,2,2,2,2,2,4,3,1,1,1,1,2,1,1,2,1,2,2,2,1,2,1,1,1,1,1,1,1,1,2,2,2,2,2,2,2,2,2,6,4,2,2,1,2,1,1,3,5,3,3,3,1,2,3,3,3,6,6,3,2,3,3,3,3,4,4,4,4,4,4,2,4,4,3,4,2,2,4,4,2,2,3,1,4,1,2,3,2,2,2,1,2,2,3,3,4,3,2,2,2,2,3,1,2,4,4,4,2,2,2,2,2,4,3,2,2,4,2,2,4,3,1,4,4,2,4,4,3,4,4,4,2,2,2,2,2,2,2,2,4,5,2,3,2,4,1,2,4,4,4,4,3,3,4,5,2,2,2,2,1
Oxford,1990,1,1,1,7,1.8542,75,5,2,3,0,2,NA,1,2,34.6,36.2,35.4,51.75,-1.25,71,1.666666667,08:08:54,5,1,2,1,NA,4,4,4,1,1,NA,2,2,1,NA,2,8,1,NA,NA,2,1,NA,1,NA,NA,NA,NA,NA,NA,NA,NA,NA,NA,3,2,4,5,4,4,3,3,4,4,4,3,4,4,2,2,1,2,2,2,2,1,2,1,4,3,1,1,4,1,4,2,1,2,4,1,2,2,2,2,1,1,1,1,1,1,2,1,1,1,1,1,2,1,2,1,1,1,1,1,2,2,1,5,1,2,2,2,2,2,2,2,7,1,2,2,1,1,2,1,2,3,1,4,5,4,5,5,4,4,5,4,3,3,2,2,1,2,2,2,2,1,3,2,2,2,2,2,2,2,2,2,4,4,3,2,2,1,1,2,2,1,4,2,4,4,4,1,2,2,2,2,1,2,4,2,2,4,2,3,2,3,4,5,3,3,2,3,3,2,3,3,1,1,1,1,2,4,4,1,2,2,3,2,2,1,5,3,2,1,1,2,2,1,1,1,2,2,1
METU,1990,1,1,2,4,1.84,93,4,2,NA,NA,2,NA,1,2,35.6,35.7,35.65,39.91169739,32.84030151,78,8,10:44:09,3,2,2,1,NA,2,2,4,1,1,NA,5,2,1,NA,2,2,1,NA,NA,1,1,NA,1,NA,NA,NA,NA,NA,NA,NA,NA,NA,NA,4,2,2,2,3,2,2,3,1,2,2,2,3,4,4,4,4,3,3,4,4,4,3,3,4,4,4,2,1,1,2,2,1,2,2,2,3,2,2,2,3,2,2,2,2,2,2,6,4,3,6,6,6,6,7,5,2,5,6,6,4,1,6,5,2,4,6,3,6,6,6,3,6,6,3,4,4,3,6,5,5,2,4,5,4,4,4,4,4,5,4,4,7,6,6,6,7,7,6,3,4,4,4,4,4,4,3,2,3,3,4,4,2,4,3,5,6,6,3,2,2,4,4,2,5,4,2,3,4,3,2,5,5,4,4,2,3,3,2,4,2,4,5,4,3,4,2,4,4,3,4,3,2,3,2,2,2,4,4,4,2,4,2,4,4,4,3,4,3,3,2,5,2,4,4,4,4,3,4
Kassel,1990,2,1,1,6,1.75,69,4,2,10,0,2,NA,1,2,35.4,35.9,35.65,51.31520081,9.464706421,56,0,10:53:17,1,1,1,3,3,4,4,4,2,7,4,4,4,1,NA,2,4,1,NA,NA,4,1,NA,1,NA,NA,NA,NA,NA,NA,NA,NA,NA,NA,3,4,5,3,3,4,5,4,3,5,4,4,5,4,3,4,2,2,2,3,2,3,2,5,5,3,3,3,5,3,4,2,1,3,3,3,4,4,3,4,3,2,3,3,3,2,3,4,3,2,4,4,4,3,3,4,1,4,6,2,2,2,5,4,2,1,1,3,4,2,1,1,1,1,1,3,1,1,1,4,4,1,3,5,5,4,5,5,4,3,5,5,5,5,6,6,6,6,6,1,2,1,2,3,2,1,1,2,1,1,2,2,5,3,1,4,8,6,3,5,3,3,3,4,3,5,4,3,3,3,3,3,2,2,2,2,3,1,2,4,3,4,3,4,4,4,4,5,3,4,5,3,1,2,1,2,2,4,3,2,2,3,3,3,4,3,2,3,4,4,5,5,2,3,4,4,4,2,2
METU,1990,2,1,2,5,1.67,79,3,2,2,3,1,10,1,2,35.6,35.8,35.7,39.91169739,32.84030151,74,12,11:21:09,3,2,2,1,NA,4,2,5,NA,8,6,8,8,1,NA,2,8,1,NA,NA,1,1,NA,1,NA,NA,NA,NA,NA,NA,NA,NA,NA,NA,3,2,2,2,2,2,1,1,2,2,3,2,2,4,3,4,3,3,3,3,4,3,3,3,4,3,3,1,3,1,1,3,3,3,1,3,3,3,4,3,4,2,2,2,1,2,4,4,4,4,5,4,3,4,5,4,4,3,2,5,1,4,4,4,3,5,5,5,5,5,4,5,5,5,3,5,3,3,6,4,5,4,4,4,3,4,4,3,3,3,4,4,4,5,5,5,5,5,5,3,4,2,4,4,3,4,4,4,4,3,3,4,3,3,3,4,5,5,2,3,2,2,3,2,3,4,3,2,5,4,2,4,3,2,2,3,4,3,3,3,2,2,3,4,3,2,2,3,3,3,3,3,2,2,2,2,4,4,4,3,2,3,4,3,4,2,3,3,2,2,3,2,3,3,3,2,2,2,3
Kassel,1990,1,1,2,5,NA,80,3,2,0,0,1,10,1,2,35.5,36.1,35.8,51.28779602,9.470504761,68,7,10:33:15,1,1,2,1,NA,4,4,5,NA,6,4,7,4,2,1,2,8,3,8,8,4,1,NA,1,NA,NA,NA,NA,NA,NA,NA,NA,NA,NA,2,2,3,2,2,3,1,2,2,4,4,2,2,3,3,3,2,2,3,2,3,3,3,2,4,2,3,3,4,2,4,2,3,4,1,4,4,4,2,3,3,2,3,2,2,1,3,6,4,4,5,4,5,3,5,6,2,6,4,4,2,3,6,5,2,1,2,6,1,1,1,1,1,1,2,2,3,3,1,4,3,2,4,4,4,4,4,4,3,3,4,4,5,5,5,6,4,4,4,2,3,4,2,2,4,4,4,3,2,3,1,2,2,2,2,5,6,5,3,2,2,5,4,4,2,4,4,4,2,3,3,4,3,2,2,3,4,2,2,2,4,5,4,3,4,4,4,4,3,3,4,2,1,3,3,3,1,4,2,4,3,2,3,4,2,3,2,3,2,3,4,3,1,2,4,3,2,3,2
Southampton,1990,1,1,2,6,1.83,114,5,2,0,0,2,NA,1,2,35.9,35.8,35.85,50.917099,-1.424804688,60,3,10:56:15,5,1,2,1,NA,4,4,5,NA,2,2,6,2,1,NA,2,8,1,NA,NA,1,1,NA,1,NA,NA,NA,NA,NA,NA,NA,NA,NA,NA,2,2,3,1,2,2,2,1,3,4,4,3,3,2,2,3,2,2,2,3,2,3,2,3,4,2,2,2,4,1,4,2,2,2,2,3,3,3,2,3,1,1,2,1,3,1,2,4,4,4,4,4,4,4,4,4,4,4,4,4,4,4,4,4,4,4,4,4,4,4,4,4,4,4,4,4,4,4,4,4,4,4,4,5,5,5,5,4,4,4,3,3,6,6,5,5,6,6,5,3,2,1,3,2,1,2,3,1,2,1,3,2,2,3,2,4,2,4,1,2,2,1,4,4,4,4,3,2,2,3,3,4,3,2,4,4,3,3,2,2,3,4,4,2,3,3,3,3,3,3,3,3,3,3,3,2,3,4,4,2,2,3,3,4,3,2,3,4,2,2,2,4,2,2,2,3,2,2,2
Poland,1990,2,1,2,6,1.78,80,3,2,2,1,1,15,1,2,36,35.9,35.95,54.5,18.55000305,79,3,11:03:24,9,1,2,1,NA,4,4,5,NA,8,2,4,2,2,1,2,8,2,1,1,1,1,NA,1,NA,NA,NA,NA,NA,NA,NA,NA,NA,NA,2,1,2,4,2,4,2,1,1,1,5,2,2,3,2,3,4,4,4,4,3,4,4,2,3,3,2,4,4,4,3,1,2,2,4,2,5,2,4,2,2,1,4,4,4,1,3,5,5,4,5,3,5,2,5,3,1,3,2,5,2,2,6,6,1,3,3,7,1,1,2,5,5,5,3,3,3,3,5,7,6,2,4,5,5,5,5,5,2,2,5,5,4,5,5,5,6,4,4,3,2,1,2,1,2,3,2,1,2,2,4,2,1,2,1,4,5,4,6,4,6,5,2,2,4,4,2,2,1,4,2,4,4,4,3,4,4,2,3,2,2,4,5,5,5,4,4,3,5,4,3,4,3,2,3,1,4,5,5,4,4,2,2,5,2,1,1,5,5,3,3,4,5,2,2,4,2,1,4
Oxford,1990,2,1,1,7,1.7145,54.54545455,4,2,2,0,2,NA,1,2,35.5,36.4,35.95,51.75,-1.25,71,1.666666667,07:56:05,5,1,2,1,NA,4,2,5,NA,2,2,6,2,1,NA,2,8,1,NA,NA,3,2,1,2,OUSU,Chapel Choir,NA,NA,NA,9,3,NA,NA,NA,3,3,5,3,4,4,3,3,3,4,4,4,4,2,4,3,2,2,1,3,2,2,2,4,5,1,2,3,3,2,4,3,2,4,2,4,4,4,4,4,4,1,1,1,1,1,4,1,1,1,5,1,1,1,1,1,1,1,1,6,1,1,1,1,1,1,1,1,2,2,2,2,1,2,1,1,3,2,2,2,2,2,1,5,5,5,5,4,5,5,4,4,5,4,4,4,5,5,5,2,3,1,1,2,2,3,1,1,2,1,1,1,1,3,2,4,5,5,2,3,1,1,2,5,5,5,1,4,1,3,3,5,3,1,5,4,3,2,2,3,4,2,4,3,5,4,4,4,3,4,4,4,1,1,2,2,3,5,1,3,1,1,4,4,1,3,2,4,4,3,3,4,2,5,4,5,3,1,4
Oslo,1990,2,1,2,6,1.68,57,4,2,1,0,2,NA,1,2,35.6,36.4,36,59.91270447,10.74609375,69,-4,11:14:18,4,1,2,1,NA,4,4,5,NA,3,2,7,6,1,NA,2,8,3,1,8,1,1,NA,2,Kor,Trening,NA,NA,NA,7,2,0,0,0,5,3,4,4,4,4,3,4,4,3,4,4,3,2,2,3,1,1,1,3,3,2,2,1,4,2,3,3,4,1,4,1,1,2,4,4,5,2,3,4,2,1,1,1,1,1,3,4,3,2,3,4,3,2,4,3,2,2,2,1,4,2,1,4,1,2,1,3,1,1,1,1,2,1,3,2,3,2,1,4,4,1,2,4,3,5,5,5,3,2,4,3,6,3,3,3,6,3,5,2,2,1,3,2,1,3,3,3,1,1,2,2,1,2,1,4,6,3,2,2,3,4,3,5,3,4,1,2,4,4,1,5,3,1,3,2,2,4,2,3,5,4,4,1,5,5,5,5,5,5,4,4,1,1,3,3,2,4,2,3,1,2,2,4,2,3,3,5,4,4,4,4,1,3,4,3,3,3,3
SMU,1990,1,1,1,5,1.68,65,3,2,4,0,2,NA,1,2,35.8,36.2,36,1.293106079,103.8558044,70,27,10:59:53,5,1,2,1,NA,4,4,5,NA,1,NA,8,6,2,2,2,8,1,NA,NA,2,1,NA,1,NA,NA,NA,NA,NA,NA,NA,NA,NA,NA,2,1,3,4,3,4,2,4,1,3,4,2,4,3,4,4,3,3,3,2,4,3,2,5,4,2,3,4,4,3,4,2,3,5,3,2,5,4,4,3,2,2,2,2,2,3,3,6,3,2,5,2,3,6,2,2,2,3,4,3,2,5,5,6,2,2,1,2,2,1,2,2,1,2,1,1,1,1,1,2,1,1,1,5,4,5,4,5,5,5,5,4,6,6,7,7,6,6,6,2,2,2,2,2,4,4,2,2,2,2,3,2,2,2,2,4,5,3,3,2,3,3,2,5,5,2,1,2,4,2,3,5,3,2,3,4,4,4,2,1,2,2,2,2,4,3,2,5,4,4,5,4,1,1,2,2,2,4,5,2,1,2,4,1,4,2,3,4,4,2,2,4,2,3,4,4,3,2,2
Serbia,1990,1,1,2,1,1.74,84,3,2,15,0,1,15,1,2,36,36.1,36.05,44.81860352,20.46809387,41,9,11:06:06,6,1,2,1,NA,2,2,4,1,2,1,2,6,1,NA,1,NA,1,NA,NA,1,1,NA,1,NA,NA,NA,NA,NA,NA,NA,NA,NA,NA,3,3,4,5,4,3,2,3,4,4,4,3,4,3,4,3,2,2,3,3,2,3,3,4,4,2,3,1,1,1,1,1,1,1,1,1,4,2,2,2,1,1,1,1,1,1,2,2,2,2,2,2,2,4,2,NA,2,6,2,5,2,2,2,2,2,2,6,8,NA,8,8,2,5,6,6,6,6,6,8,6,6,6,3,5,4,4,5,5,4,2,3,4,2,2,2,2,2,3,2,3,2,1,2,2,2,2,2,2,2,2,2,2,4,4,2,2,1,1,1,1,1,1,4,4,4,4,2,2,2,2,2,4,2,2,2,2,2,4,4,4,4,2,2,2,2,2,2,2,2,4,2,2,2,2,4,2,2,2,4,2,2,4,4,4,4,2,2,2,2,2,2,2,4,2,2,2,2,4,1
Kassel,1990,1,1,1,7,1.78,63,5,2,1,0,2,NA,1,2,36,36.1,36.05,51,9,53,4,12:05:27,1,1,2,1,NA,4,2,5,NA,2,1,4,3,2,1,2,7,3,2,7,1,1,NA,2,Rollenspielgruppe,NA,NA,NA,NA,2,NA,NA,NA,NA,4,4,3,4,3,4,3,5,3,4,4,4,5,2,2,3,2,2,1,2,2,2,2,3,3,1,2,1,1,1,2,1,1,1,1,1,1,1,1,1,1,1,1,1,1,1,1,3,2,2,3,2,5,1,6,2,4,6,4,5,2,3,1,6,3,3,4,2,2,2,2,1,4,6,2,2,2,2,2,4,2,2,3,4,4,4,5,2,3,2,4,4,1,2,1,1,1,5,1,1,2,1,2,1,1,2,2,4,1,1,1,1,3,4,2,3,2,1,1,2,1,2,4,2,4,4,2,1,1,2,1,5,2,1,3,5,2,2,2,4,1,5,4,5,4,4,3,4,1,1,2,1,3,3,3,4,2,3,4,2,1,2,4,1,1,1,3,3,4,1,1,1,4,2,2,1,2,1,2
Kassel,1990,1,1,1,7,1.8,75,4,2,1,0,1,2,1,2,35.9,36.2,36.05,51.28779602,9.470504761,77,5,10:55:22,1,1,1,1,NA,4,2,4,1,3,1,8,4,1,NA,2,5,3,1,2,3,1,NA,1,NA,NA,NA,NA,NA,NA,NA,NA,NA,NA,3,2,2,2,1,3,3,3,2,2,4,2,4,2,2,2,2,3,2,2,2,2,2,1,3,1,2,1,4,1,4,1,1,1,1,2,1,1,1,1,1,1,1,1,1,2,1,2,1,1,1,2,1,1,1,2,1,7,1,1,2,1,1,2,1,1,1,2,2,1,1,1,1,1,1,2,2,1,1,2,2,1,2,5,3,5,5,4,2,3,4,3,3,3,2,4,2,2,2,2,3,1,2,1,1,2,2,1,1,2,2,2,1,3,2,4,5,2,2,3,3,3,3,4,4,4,2,3,3,3,3,4,4,3,4,5,2,2,3,3,3,4,3,4,5,3,4,4,2,5,4,3,2,4,2,2,1,4,1,2,4,2,2,5,2,1,3,3,4,2,1,3,1,2,2,2,2,2,1
Zurich,1990,2,3,1,6,1.83,81,3,2,1,0,2,NA,1,2,36.09,36.02,36.055,NA,NA,60,1,09:58:21,1,1,2,1,NA,4,2,4,1,5,1,5,2,1,NA,1,NA,1,NA,NA,3,1,NA,1,NA,NA,NA,NA,NA,NA,NA,NA,NA,NA,3,3,1,3,2,2,2,2,2,2,1,3,2,4,3,3,2,3,3,2,4,3,4,3,4,3,2,3,4,2,4,3,3,1,4,4,3,3,3,3,3,3,3,3,3,3,3,1,1,1,1,1,3,1,1,1,1,7,2,5,1,1,1,1,1,1,1,4,1,2,1,1,2,7,1,1,1,2,1,7,5,1,1,4,4,4,4,3,5,2,4,3,5,5,6,5,7,6,6,2,2,1,4,3,1,4,2,1,3,2,2,2,1,2,2,4,6,6,3,3,2,4,2,3,1,5,4,1,4,3,2,1,3,3,1,3,2,1,4,4,3,4,4,4,4,4,3,3,2,3,2,2,2,3,4,3,3,1,1,2,4,3,2,3,2,2,3,3,4,3,3,2,4,2,2,2,2,1,3
VCU,1990,1,1,2,4,1.6256,72.72727273,4,1,18,0,1,3,1,2,35.94444444,36.22222222,36.08333333,37.44259644,-77.67199707,34,8.888888889,11:20:25,5,1,2,1,NA,4,4,5,NA,2,2,4,4,1,NA,2,4,3,5,3,1,1,NA,1,NA,NA,NA,NA,NA,NA,NA,NA,NA,NA,3,2,3,2,3,2,1,3,2,2,4,3,2,4,4,4,3,3,3,3,3,3,4,4,3,4,4,3,3,2,2,3,3,4,3,4,4,3,3,4,3,2,2,3,3,4,4,4,4,3,5,2,4,3,4,3,6,5,2,4,3,3,3,5,5,3,4,5,5,4,5,6,4,4,4,4,3,4,4,4,5,4,5,4,3,3,4,3,4,4,3,3,5,5,6,6,5,5,5,3,4,2,3,4,3,4,3,4,2,3,2,3,1,2,2,4,5,5,5,5,5,5,3,3,3,4,3,4,3,2,3,4,3,2,3,4,2,3,3,4,3,4,4,3,4,4,4,3,2,4,3,2,5,4,4,3,3,3,4,4,3,3,2,4,2,3,2,3,4,4,4,4,2,3,3,3,3,4,3
Oxford,1990,2,1,1,7,1.76,76,1,1,4,7,2,NA,1,2,35.6,36.6,36.1,51.75,-1.25,71,1.666666667,08:26:20,5,1,2,1,NA,4,4,5,NA,1,NA,1,1,2,1,2,8,3,1,5,1,1,NA,2,cheerleading,rowing,choir,NA,NA,20,5,10,NA,NA,1,1,3,3,1,1,1,1,1,1,1,2,2,1,5,5,5,5,5,1,5,5,5,4,5,3,5,4,4,2,4,4,3,4,4,4,4,4,4,4,3,2,3,4,4,2,4,7,7,7,7,6,7,5,7,1,5,7,5,5,3,7,7,7,2,7,2,6,2,2,2,3,5,6,3,3,3,2,3,3,3,2,6,4,4,4,4,4,5,5,5,5,7,4,4,4,7,7,7,4,5,4,5,4,4,4,4,3,4,2,2,3,3,4,3,4,6,5,6,4,5,1,1,4,1,5,4,5,3,4,5,4,4,1,1,4,5,1,1,4,1,3,4,4,5,5,5,3,1,2,2,1,2,2,2,4,4,2,5,2,2,4,3,3,4,4,1,1,5,5,5,2,4,3,2,1,3,1,1
Kassel,1990,1,1,1,2,1.9,73,3,2,0,0,2,NA,1,2,35.76,36.48,36.12,50.13330078,8.916702271,82,1,10:12:15,1,1,2,1,NA,2,2,4,1,4,2,3,3,1,NA,2,3,1,NA,NA,1,1,NA,2,Spielegruppe,NA,NA,NA,NA,4,NA,NA,NA,NA,2,4,3,2,2,4,3,2,2,4,4,4,4,3,4,3,4,2,3,2,2,3,3,5,4,2,2,4,4,2,4,3,2,4,4,4,4,4,4,5,4,2,2,2,2,3,3,5,5,5,5,5,5,5,4,5,5,6,3,5,4,2,3,3,3,5,2,6,2,3,2,3,3,3,2,2,3,3,5,6,3,4,3,4,3,4,4,4,4,4,4,5,6,5,5,5,6,5,5,4,4,4,4,4,3,4,2,4,4,4,2,2,2,4,2,5,6,6,6,5,2,2,1,4,3,4,3,4,2,2,4,4,4,1,3,5,2,1,1,2,4,4,4,5,3,5,3,4,3,4,4,4,4,4,4,2,2,5,3,4,2,4,2,5,2,4,2,4,4,4,4,4,4,3,4,3,4,2,3
SMU,1990,1,1,2,4,1.72,73,3,2,0,0,2,NA,1,2,36.1,36.4,36.25,1.293106079,103.8558044,79,26,10:24:47,5,1,2,1,NA,4,4,5,NA,2,2,3,3,2,1,2,3,2,1,1,2,2,2,2,Canoe Club,NA,NA,NA,NA,5,NA,NA,NA,NA,2,2,1,2,4,3,2,2,2,2,1,3,2,5,3,4,3,3,2,3,4,3,3,3,5,3,4,4,4,4,4,4,4,4,4,4,4,4,4,4,3,4,3,4,3,3,4,5,5,5,6,5,5,5,5,3,5,4,5,5,6,4,5,5,5,5,4,5,3,4,5,5,4,4,3,3,3,4,4,3,3,3,3,4,4,4,4,4,5,4,4,4,4,5,4,5,5,4,4,4,4,4,4,4,4,4,4,3,4,4,2,3,2,3,2,4,3,4,5,5,5,6,3,4,4,3,1,3,4,5,4,5,5,4,4,4,3,4,2,4,3,3,4,5,4,4,4,4,4,4,4,4,3,3,3,4,4,4,3,4,3,3,4,4,4,4,4,4,4,4,4,4,4,4,4,4,4,4,4
Tsinghua,1990,1,1,1,2,1.85,81.6,2,2,4,0,2,0,1,2,36.1,36.5,36.3,39.92889404,116.3883057,51,7,10:30:20,7,3,2,1,0,4,4,5,0,2,1,2,2,1,2,2,3,3,2,2,3,2,2,2,NA,NA,NA,NA,NA,NA,NA,NA,NA,NA,2,2,2,3,1,5,2,4,1,3,5,2,3,5,4,5,4,3,4,4,5,3,4,4,5,4,4,5,4,3,4,5,4,5,4,4,4,5,3,4,3,3,2,3,5,2,4,5,5,5,4,6,6,5,3,4,5,3,5,4,5,4,3,4,5,4,2,5,3,5,5,5,3,2,5,2,2,2,3,2,4,4,3,5,5,5,5,5,5,5,5,5,5,4,5,6,5,5,6,4,2,2,3,3,4,2,3,3,5,2,2,4,1,4,2,3,3,4,3,3,2,2,4,5,5,4,4,3,3,4,3,4,4,5,4,4,4,5,4,4,4,3,4,4,3,3,3,4,5,4,4,5,4,2,4,5,5,5,4,4,2,4,4,4,4,3,2,4,4,4,3,3,4,5,5,4,2,2,2
SMU,1990,1,1,1,7,1.73,65,5,2,1,0,2,NA,1,2,36.3,36.4,36.35,1.293106079,103.8558044,70,27,10:14:50,5,1,1,1,NA,4,4,4,1,1,NA,5,2,1,NA,2,3,2,1,3,1,1,NA,1,NA,NA,NA,NA,NA,NA,NA,NA,NA,NA,3,5,3,2,5,4,2,2,2,3,3,5,4,1,3,2,4,1,2,2,2,1,2,1,4,2,1,4,4,2,4,4,2,2,4,4,4,1,1,1,1,1,1,1,1,1,1,2,3,1,2,1,2,1,1,6,2,6,2,1,1,3,2,3,2,5,1,3,3,3,3,3,3,2,3,2,2,2,3,3,4,2,2,5,5,5,5,5,4,1,4,4,2,2,2,2,2,2,2,2,4,2,4,2,2,2,4,2,2,1,1,2,2,3,2,3,2,2,1,2,1,1,2,4,5,1,1,3,3,3,4,5,4,1,4,4,4,5,2,3,2,2,4,4,2,4,2,4,4,2,3,2,1,1,2,3,1,2,2,2,2,2,4,5,2,1,1,3,5,1,1,2,4,4,2,4,2,1,4
Serbia,1990,1,1,1,7,2,100,4,2,4,0,2,NA,1,2,36.5,36.3,36.4,44.81860352,20.46809387,95,11,12:30:56,6,1,2,1,NA,4,2,4,1,8,5,6,5,1,NA,2,4,3,1,2,3,1,NA,1,NA,NA,NA,NA,NA,NA,NA,NA,NA,NA,4,5,5,4,4,5,4,5,4,4,5,5,5,3,1,2,2,2,1,2,2,2,2,1,5,1,2,2,2,1,2,1,2,2,1,1,2,1,2,2,2,1,1,1,2,1,1,2,1,2,1,8,2,2,2,1,1,1,2,2,1,1,2,2,2,2,NA,7,NA,4,4,2,NA,1,NA,5,NA,NA,2,7,NA,NA,3,4,2,4,4,4,2,1,2,2,2,3,3,1,2,2,4,2,4,2,2,2,1,2,2,4,1,1,3,3,3,4,3,1,2,2,1,2,2,2,5,4,4,5,2,2,4,4,2,4,2,1,3,2,2,3,4,3,3,5,4,4,4,4,1,1,5,3,2,2,3,2,2,2,3,4,4,4,2,2,3,4,2,2,4,4,4,3,3,4,3,4,2,1,2,1,2
Poland,1990,2,1,1,6,1.64,51,3,1,4,2,2,NA,1,2,36.56,36.26,36.41,54.58329773,18.3999939,92,6,11:10:13,9,1,1,1,NA,4,4,4,2,8,5,7,7,1,NA,2,1,6,1,5,1,2,5,2,o?rodek interwencyjny,organizacja harcerska,NA,NA,NA,2,3,NA,NA,NA,2,2,4,5,5,4,1,3,1,2,1,2,5,4,3,4,4,3,4,3,4,3,2,2,5,3,3,1,2,2,1,4,1,1,2,1,4,3,4,3,4,1,1,1,1,1,4,1,1,1,1,4,5,1,1,1,1,7,1,2,1,3,6,6,1,1,1,2,1,1,1,1,1,1,1,2,2,1,2,3,3,7,2,5,4,3,4,4,2,1,4,4,7,7,7,7,7,6,6,2,1,2,1,1,2,2,2,3,1,2,1,1,1,2,1,5,7,7,6,6,4,4,1,3,2,5,4,4,2,1,5,2,2,2,1,2,4,1,5,4,3,4,4,5,3,5,4,5,3,3,5,4,1,4,1,4,1,4,2,4,2,1,2,3,4,4,2,1,4,4,3,4,5,1,3,5,4,2,4
Kassel,1990,2,1,2,5,1.68,64,3,1,3,0,1,18,1,2,36.26,36.59,36.425,51.31950378,9.516296387,77,5,10:57:08,1,1,4,1,NA,4,1,4,1,4,2,8,5,1,NA,2,8,1,NA,NA,1,1,NA,2,Fachschaft an der Universit?t,NA,NA,NA,NA,4,NA,NA,NA,NA,4,2,4,3,3,4,4,4,3,4,5,4,4,3,3,4,2,2,2,2,2,3,3,3,4,3,2,4,4,2,2,2,2,1,3,2,2,2,1,2,1,1,1,1,1,1,1,2,2,1,2,3,5,3,2,2,2,6,1,2,2,5,1,1,1,2,1,5,1,2,1,1,2,2,1,2,1,5,2,5,4,2,3,4,4,3,5,4,5,4,5,4,5,4,3,2,4,3,5,2,2,1,2,2,2,3,2,3,2,1,2,2,2,1,1,5,8,6,4,2,3,6,2,3,2,5,4,3,2,2,3,4,2,4,3,4,4,2,4,4,4,4,3,3,4,5,5,3,2,3,4,3,2,3,3,2,2,4,3,3,2,2,2,3,1,3,2,4,4,3,4,3,1,1,2,3,3,2,4
VCU,1990,1,1,1,7,1.8288,75.90909091,3,2,8,0,2,NA,1,2,36.38888889,36.5,36.44444444,37.51600647,-77.50050354,49,10.55555556,09:38:48,5,1,1,1,NA,4,4,4,4,1,NA,3,5,1,NA,2,8,3,8,8,4,1,NA,1,NA,NA,NA,NA,NA,NA,NA,NA,NA,NA,4,2,2,3,4,2,3,3,2,2,3,4,2,2,3,4,2,3,3,3,3,2,3,3,4,2,3,4,4,2,4,2,4,2,2,4,4,2,2,3,2,2,2,2,2,3,2,2,2,2,2,3,2,2,2,2,2,6,2,2,2,2,2,2,2,2,2,2,2,2,2,2,2,2,3,2,3,2,1,2,2,1,3,4,4,5,5,4,2,2,2,4,3,5,4,5,2,2,2,2,4,2,3,2,2,2,2,2,2,2,3,3,2,4,2,5,5,5,5,5,5,5,4,2,4,4,4,4,4,4,4,4,2,2,4,4,4,3,2,4,4,3,4,2,4,4,4,4,3,3,4,2,2,2,2,4,4,4,2,2,2,2,2,4,1,1,2,4,3,4,4,3,2,2,4,3,3,4,1
Serbia,1990,1,1,1,7,1.87,78,5,2,3,0,2,NA,1,2,36.5,36.5,36.5,44.81860352,20.46809387,95,11,11:23:06,6,1,2,1,NA,4,4,5,NA,8,6,6,6,1,NA,2,8,2,2,3,3,1,NA,1,NA,NA,NA,NA,NA,NA,NA,NA,NA,NA,4,5,4,3,4,5,3,2,3,4,4,5,4,2,2,2,1,1,1,2,1,2,3,2,5,1,1,1,2,1,2,1,1,1,1,1,1,2,1,1,1,1,1,1,1,1,1,1,1,2,1,4,1,2,1,4,1,4,1,1,1,2,1,2,1,4,NA,1,3,1,1,1,4,3,4,4,4,4,1,7,7,1,1,4,3,3,5,5,4,3,4,5,3,5,4,4,4,2,4,1,3,1,5,2,1,1,1,1,1,2,4,1,5,1,4,2,3,4,3,2,2,2,3,2,3,5,5,1,4,3,3,2,3,1,3,2,1,3,3,4,2,5,3,4,4,3,1,3,2,1,1,2,1,2,1,1,2,3,1,1,1,2,3,5,3,3,4,4,3,2,3,1,1,3,1,1,3,3,1
Poland,1990,1,2,1,5,1.78,78,3,2,32,10,2,NA,1,2,36.5,36.5,36.5,52.25,21,55,-3,11:22:40,9,1,1,1,NA,4,2,4,1,1,NA,6,6,1,NA,2,8,6,1,8,1,1,NA,1,NA,NA,NA,NA,NA,NA,NA,NA,NA,NA,4,2,3,4,3,3,2,4,3,1,4,3,2,3,2,3,4,4,4,3,2,3,2,3,4,4,2,3,2,3,2,3,2,4,3,2,3,3,3,4,2,2,2,1,2,2,3,2,3,3,4,3,5,2,3,3,3,5,2,4,2,4,5,4,3,4,4,5,3,4,5,5,2,5,3,3,3,3,6,6,5,2,2,4,2,4,4,3,2,2,2,2,4,4,4,3,5,5,6,2,2,2,2,2,3,2,2,2,2,2,3,3,2,3,1,4,3,4,3,2,4,3,2,4,3,3,2,5,2,4,5,4,4,1,4,3,3,2,2,4,2,3,5,5,3,3,2,4,2,3,4,4,3,4,3,2,2,3,2,4,4,2,4,4,3,2,2,3,3,4,4,4,3,4,3,4,4,2,2
Kassel,1990,2,1,2,5,1.68,65,4,2,2,0,1,3,1,2,36.2,36.8,36.5,49.14230347,9.223403931,86,9,10:33:11,1,1,3,1,NA,4,4,5,NA,6,2,8,4,2,1,1,NA,3,1,1,2,1,NA,2,Sch¨¹tzenverein,NA,NA,NA,NA,1,NA,NA,NA,NA,2,1,2,1,1,2,1,2,1,1,4,1,2,2,4,3,2,2,2,3,2,3,3,4,5,1,4,3,4,2,4,4,1,2,2,5,5,4,5,4,4,2,2,1,1,4,4,6,6,6,3,6,6,3,6,5,6,4,4,7,3,6,4,5,6,3,2,1,4,3,7,4,3,2,2,2,4,3,4,2,1,2,3,4,3,3,4,5,5,2,4,2,6,6,6,7,6,4,5,2,4,1,1,4,4,4,2,2,4,4,2,1,1,4,1,4,6,4,4,4,3,4,4,5,3,4,2,2,1,2,2,4,2,1,2,3,3,2,3,2,2,4,5,5,3,2,3,3,3,3,4,4,2,2,1,1,1,4,3,2,3,2,2,4,2,1,4,3,4,2,4,1,4,3,3,2,4,5,2
Kassel,1990,1,1,1,7,1.78,88,4,2,16,0,2,NA,1,2,36.4,36.6,36.5,50.6000061,8.833297729,71,1,10:24:42,1,1,1,1,NA,4,4,4,4,3,3,4,4,2,1,2,8,3,8,8,1,2,8,2,Gefahrenabwehr,Sportverein 1,Sportverein 2,Uni,NA,7,7,7,7,NA,2,3,4,3,3,4,1,4,3,5,5,3,3,1,1,3,2,2,1,2,3,1,2,2,3,3,1,5,5,1,4,3,1,2,1,5,3,3,3,3,3,3,3,3,3,1,3,4,1,1,2,6,1,2,1,6,4,2,1,1,5,1,1,1,1,1,1,1,1,1,1,2,1,7,2,1,1,1,1,7,2,1,5,5,4,5,5,5,5,5,5,5,5,2,2,1,1,2,3,3,3,3,2,3,3,1,1,3,1,3,3,3,2,4,3,2,2,2,2,2,1,1,4,4,4,3,2,3,2,4,2,4,2,4,4,1,1,2,2,4,3,4,3,5,2,4,3,5,4,2,3,3,2,1,1,3,3,5,5,1,1,4,4,4,2,3,1,4,4,4,4,3,3,2,1,1,3,3,3
Tsinghua,1990,1,1,2,7,1.77,70,3,2,4,4,2,0,1,2,36.5,36.6,36.55,39.92889404,116.3883057,51,7,09:23:52,7,3,2,1,0,4,2,5,0,1,0,5,3,1,1,1,1,3,4,3,1,2,1,2,NA,NA,NA,NA,NA,NA,NA,NA,NA,NA,4,4,5,3,5,4,2,5,2,4,4,3,2,4,5,5,2,2,2,3,3,2,3,5,5,2,4,5,4,2,4,4,4,5,4,5,4,4,5,4,5,4,4,4,4,1,5,7,7,7,7,7,7,6,5,6,2,6,3,6,2,5,6,6,4,2,1,2,2,3,1,3,2,1,2,2,1,1,3,2,1,2,1,4,3,2,2,2,4,2,2,3,6,3,2,7,7,7,7,4,2,4,2,2,2,2,4,4,3,4,4,2,1,2,2,4,5,7,3,4,2,4,3,2,4,3,3,1,4,4,2,4,2,4,4,4,2,5,2,4,2,2,4,4,2,2,2,4,2,4,4,3,3,3,2,4,4,4,5,5,4,4,2,4,4,2,4,4,2,2,2,2,4,4,2,4,4,2,2
Poland,1990,2,1,1,1,1.72,53,4,2,NA,0,2,NA,1,2,36.7,36.6,36.65,52.25,21,59,-3,10:06:11,9,1,1,1,NA,4,2,4,4,8,3,7,5,2,5,1,NA,6,1,6,1,1,NA,1,NA,NA,NA,NA,NA,NA,NA,NA,NA,NA,4,5,4,5,5,5,4,4,5,5,4,5,4,1,2,1,4,4,3,4,2,2,4,1,2,4,1,1,1,1,1,1,1,1,1,1,2,1,1,2,1,1,1,1,1,1,2,1,1,1,1,1,1,1,1,1,1,7,1,2,2,1,4,2,1,1,3,1,1,2,2,1,1,1,2,1,2,2,1,4,4,1,1,4,4,4,4,4,2,2,2,4,1,2,1,1,1,1,2,2,3,2,2,2,2,2,2,2,2,2,4,2,2,2,1,4,5,4,2,5,2,5,2,4,2,4,4,3,2,2,2,2,1,2,1,2,3,1,2,1,2,4,3,4,4,4,4,4,2,4,4,2,2,2,2,2,2,3,2,2,2,2,2,2,2,2,2,2,2,3,3,3,3,2,2,2,2,4,1
Tsinghua,1990,2,1,1,7,1.73,55,3,1,0,0,2,0,1,2,36.3,37.1,36.7,39.92889404,116.3883057,51,7,10:29:53,7,3,2,1,0,4,4,5,0,3,1,8,4,1,1,2,5,1,1,7,1,2,1,2,NA,NA,NA,NA,NA,NA,NA,NA,NA,NA,3,4,4,5,4,4,3,4,4,4,4,4,3,2,2,3,2,2,2,3,2,2,3,2,4,2,2,4,4,2,4,3,4,2,4,3,5,4,4,4,4,2,2,2,2,3,3,3,2,2,5,6,2,2,2,6,2,2,2,6,2,2,2,3,2,5,2,4,2,2,2,2,2,2,2,2,3,2,2,4,4,2,3,5,4,4,5,5,5,5,4,4,5,2,4,5,3,4,4,2,2,4,3,2,4,3,3,3,2,4,2,3,2,3,2,4,4,5,4,4,5,5,2,4,4,4,1,4,1,2,5,5,2,1,4,5,2,1,2,4,2,2,3,3,4,2,4,5,4,4,4,4,1,1,2,4,5,5,2,4,1,4,2,4,4,2,1,4,2,4,5,3,2,2,3,3,4,2,5
VCU,1990,2,1,1,7,1.651,86.36363636,3,1,0,14,1,5,1,2,36.83333333,36.77777778,36.80555556,37.55769348,-77.37689972,94,13.33333333,11:26:13,5,1,1,1,NA,4,4,2,1,2,1,7,6,1,NA,2,6,3,1,4,1,1,NA,1,NA,NA,NA,NA,NA,NA,NA,NA,NA,NA,3,2,4,2,3,3,2,2,2,2,3,3,4,3,3,5,2,3,3,3,3,3,4,4,5,3,4,2,3,2,4,2,4,2,3,4,4,4,4,4,2,2,2,2,2,2,4,6,3,5,6,2,5,6,5,5,5,3,5,3,2,6,5,7,2,4,2,2,3,2,3,2,3,3,2,2,2,2,5,7,7,2,3,4,4,3,4,3,2,4,4,4,6,5,4,5,7,6,5,4,4,1,4,2,4,4,2,2,4,2,2,2,2,2,2,3,2,4,3,3,3,1,3,4,4,4,4,2,4,2,3,4,2,2,3,3,3,3,4,2,2,2,4,4,4,4,4,3,3,3,4,3,2,2,2,3,5,4,2,2,3,2,4,2,2,3,2,3,4,4,3,2,4,4,3,2,3,1,2
Oxford,1991,2,1,2,7,1.651,57,3,1,1,0,2,NA,1,2,34,36.2,35.1,51.75,-1.25,74,2.777777778,08:59:46,5,1,2,1,NA,3,3,5,NA,2,2,6,6,1,NA,2,8,1,NA,NA,2,1,NA,1,NA,NA,NA,NA,NA,NA,NA,NA,NA,NA,2,4,5,5,5,5,1,1,3,3,4,4,4,2,1,4,3,2,2,3,3,2,3,1,4,2,2,1,2,1,2,1,1,1,1,3,4,1,1,1,1,1,1,1,1,1,1,4,1,2,1,2,4,1,2,2,2,2,2,2,4,2,4,2,2,2,2,2,2,1,1,2,2,2,2,2,2,2,2,3,2,2,4,4,3,4,4,4,4,4,4,3,7,5,5,5,6,7,6,1,1,1,2,3,1,1,2,1,1,1,3,3,2,1,2,2,5,5,4,4,2,4,1,5,3,3,3,4,4,2,2,3,3,1,3,3,3,2,5,4,2,4,4,3,4,5,5,4,4,3,3,3,3,3,3,4,2,4,3,4,3,2,2,2,2,4,1,4,4,4,3,3,4,4,2,2,3,1,3
Oxford,1991,1,1,1,7,1.7,80,5,2,0,0,2,NA,2,2,34.1,36.2,35.15,51.75,-1.25,89,-1.666666667,08:00:30,5,1,1,1,NA,4,4,4,1,1,NA,4,8,2,8,2,3,1,NA,NA,1,2,2,1,NA,NA,NA,NA,NA,NA,NA,NA,NA,NA,2,2,3,3,4,3,3,3,2,3,3,2,3,3,3,2,3,3,3,3,3,3,3,3,4,3,3,2,2,2,2,2,2,2,2,2,2,2,2,2,2,2,2,2,2,2,2,3,4,3,4,4,3,3,4,3,3,4,3,3,3,4,3,3,3,3,4,3,4,4,3,3,5,5,5,4,4,4,3,5,3,4,3,4,3,4,3,3,3,4,4,4,6,6,6,6,6,6,6,3,2,2,3,2,3,3,2,3,2,3,2,2,3,3,3,4,5,4,3,3,3,3,4,4,4,4,3,2,2,4,3,3,3,2,3,4,3,3,3,4,2,2,4,3,4,2,2,2,2,2,2,2,3,2,2,3,3,4,4,3,2,3,4,3,2,3,4,3,3,3,2,4,4,4,2,2,3,3,3
SMU,1991,1,2,1,7,1.73,66,3,2,0,0,2,NA,1,2,34.6,35.7,35.15,1.293106079,103.8558044,71,26,10:11:59,5,1,2,1,NA,4,4,5,NA,2,2,8,8,2,1,2,8,1,NA,NA,1,1,NA,1,NA,NA,NA,NA,NA,NA,NA,NA,NA,NA,4,2,4,4,2,3,2,4,4,4,4,2,4,3,3,3,2,2,2,2,3,2,2,3,4,2,3,4,4,4,4,4,4,4,4,4,4,4,4,4,4,4,4,4,4,4,4,2,2,6,2,2,2,2,2,6,2,2,2,2,2,2,2,2,2,2,2,2,2,2,2,2,2,2,2,2,2,2,2,2,2,2,2,4,4,4,4,4,4,4,4,4,4,5,5,5,4,4,4,2,2,3,2,2,3,4,2,2,2,2,2,2,2,4,2,3,4,5,3,2,3,3,4,4,4,4,2,4,4,4,4,4,4,2,4,4,2,4,4,4,4,4,4,4,4,4,4,4,4,4,4,4,2,2,3,2,2,4,3,4,3,4,3,4,4,4,4,4,4,4,4,4,2,4,4,4,4,4,2
METU,1991,1,1,1,6,1.72,72,4,2,33,0,2,NA,1,2,35.3,35.2,35.25,39.91169739,32.84030151,49,6,11:17:02,3,2,2,1,NA,4,4,4,1,8,6,8,8,1,NA,2,8,1,NA,NA,3,1,NA,1,NA,NA,NA,NA,NA,NA,NA,NA,NA,NA,2,4,2,3,2,2,1,1,2,1,3,2,3,3,3,3,3,3,3,2,4,3,3,3,4,3,3,3,3,4,3,4,2,4,1,4,3,4,4,3,4,4,4,2,4,3,4,5,2,1,3,5,5,2,3,5,2,6,2,2,2,2,6,2,1,3,3,4,2,2,2,2,2,2,3,2,3,2,2,4,4,2,2,5,4,4,4,4,5,5,5,4,5,5,5,5,5,4,4,2,2,2,2,2,2,2,2,2,2,2,3,3,3,4,2,5,4,4,2,3,2,3,4,2,3,4,3,2,1,4,3,5,3,3,4,4,3,4,3,3,4,4,3,2,5,4,4,4,4,4,4,4,2,2,3,2,3,4,2,2,3,3,2,4,3,3,2,4,3,4,4,4,2,3,3,3,2,3,2
VCU,1991,1,2,2,7,1.8542,109.0909091,5,2,2,1,1,2,1,2,34.11111111,36.55555556,35.33333333,37.55380249,-77.46029663,81,14.44444444,10:59:07,5,1,2,1,NA,4,4,5,NA,3,2,4,4,1,NA,2,8,1,NA,NA,2,1,NA,1,NA,NA,NA,NA,NA,NA,NA,NA,NA,NA,5,1,1,1,1,5,1,5,1,1,5,1,1,5,5,5,1,1,1,1,5,1,1,5,5,1,5,5,5,5,5,5,5,5,5,5,5,5,5,5,5,5,5,5,5,5,5,7,7,7,7,7,7,7,7,1,7,1,7,7,7,7,7,7,7,7,1,7,1,7,7,7,1,1,1,1,1,1,7,1,1,1,1,5,4,4,4,4,5,3,2,4,5,7,7,7,7,7,7,4,5,4,1,5,5,5,5,5,4,3,2,5,1,5,1,2,3,4,3,3,5,5,3,3,3,3,3,3,3,3,3,5,5,5,5,5,5,5,5,5,5,5,5,5,5,5,5,5,5,5,5,5,5,5,5,5,5,5,5,5,5,5,5,5,5,5,5,5,5,5,5,5,5,5,5,5,5,5,5
Zurich,1991,2,1,1,6,1.8,90,2,2,0,0,2,NA,1,2,35.3,35.9,35.6,47.39990234,8.547393799,88,7,10:56:22,1,1,1,1,NA,4,4,4,2,2,2,4,4,1,NA,1,NA,1,NA,NA,1,1,NA,1,NA,NA,NA,NA,NA,NA,NA,NA,NA,NA,2,4,3,4,5,5,3,3,2,5,2,4,3,3,2,2,3,2,3,3,2,2,3,4,4,3,2,2,2,2,3,2,2,2,2,2,4,2,4,2,4,1,1,1,1,1,4,2,2,2,2,4,2,2,2,6,3,2,2,2,2,2,2,2,1,4,3,2,3,2,2,2,2,2,4,4,3,5,1,6,6,2,5,5,5,4,5,5,5,3,4,4,6,5,4,5,4,4,5,2,2,2,2,3,2,4,2,2,3,2,2,3,2,3,2,4,4,6,2,4,2,4,3,2,3,5,4,2,3,3,2,4,3,5,2,2,2,2,3,2,3,4,3,4,4,4,4,5,5,3,4,4,1,1,2,1,4,5,4,5,3,4,5,3,5,2,4,4,4,4,3,5,1,3,4,5,4,3,4
Kassel,1991,1,3,1,2,1.93,95,3,1,92,10,1,10,1,2,35.5,35.7,35.6,52.40969849,9.807998657,53,12,09:45:47,1,1,2,1,NA,4,4,5,NA,4,1,8,8,1,NA,2,6,3,1,8,3,1,NA,1,NA,NA,NA,NA,NA,NA,NA,NA,NA,NA,2,2,1,1,1,2,1,3,3,4,3,1,4,4,5,3,3,3,2,3,4,3,4,5,4,2,5,4,3,2,2,4,2,1,3,3,3,3,3,2,2,1,1,1,1,1,2,5,2,6,3,7,4,5,5,5,4,3,4,1,2,6,5,4,4,2,1,7,2,2,1,3,3,2,1,2,1,2,1,6,6,2,3,4,4,4,5,5,3,4,5,5,6,7,6,6,6,5,5,2,1,2,1,3,3,2,2,1,3,3,1,2,2,2,1,4,5,4,4,2,2,3,2,3,2,2,2,2,2,4,1,4,3,4,2,3,3,4,5,2,1,3,4,4,3,4,3,5,4,3,4,3,4,2,2,1,1,5,4,2,1,3,2,3,2,2,3,4,3,1,3,3,4,3,3,4,2,1,2
Oxford,1991,1,1,2,3,1.8542,90,4,2,5,0,2,NA,1,2,35.3,36.1,35.7,51.75,-1.25,89,-1.666666667,08:54:35,5,1,2,1,NA,2,2,5,NA,8,5,7,3,2,8,1,NA,3,1,8,1,1,NA,1,NA,NA,NA,NA,NA,NA,NA,NA,NA,NA,4,3,5,5,3,5,5,5,4,4,3,4,4,3,4,3,2,2,1,3,2,2,3,3,5,2,3,2,1,1,1,1,3,2,1,4,3,2,1,4,1,1,1,1,2,2,3,1,1,1,1,1,5,2,1,7,1,6,1,2,1,2,1,2,2,1,7,2,5,2,4,2,6,7,6,6,6,7,2,7,6,6,7,5,5,5,5,4,5,4,4,5,1,2,2,1,2,1,1,2,1,1,5,2,2,3,4,1,1,2,1,2,4,4,2,1,1,3,2,2,2,1,1,1,1,4,4,4,1,3,4,1,1,1,1,1,4,1,4,3,4,4,2,3,4,4,4,4,5,4,4,4,1,1,1,4,5,5,4,4,4,4,3,4,4,4,1,1,4,4,4,4,1,1,4,5,4,4,1
SMU,1991,2,1,2,4,1.66,54,3,2,0,0,2,NA,2,2,35.8,35.7,35.75,NA,NA,70,27,09:27:48,5,1,2,1,NA,4,4,5,NA,1,NA,5,6,1,NA,2,6,1,NA,NA,3,2,8,1,NA,NA,NA,NA,NA,NA,NA,NA,NA,NA,3,5,4,5,3,2,2,2,2,5,4,4,3,3,3,2,3,3,2,2,3,3,3,3,3,3,2,3,2,3,3,3,3,3,4,2,4,2,4,4,3,2,3,2,4,3,3,5,4,4,4,4,4,4,4,4,4,4,4,4,2,4,4,4,4,4,4,4,4,4,4,4,4,4,4,4,4,4,4,5,5,4,2,5,5,4,5,5,4,3,4,4,3,5,4,3,3,4,4,2,3,3,3,1,2,3,2,2,2,1,2,2,2,3,2,4,5,4,5,4,4,4,4,4,4,3,3,3,3,3,3,4,4,2,3,4,3,4,3,3,3,3,3,3,3,3,3,3,3,3,3,3,3,3,3,3,3,3,2,2,2,2,3,3,3,3,2,4,4,4,3,3,4,3,3,4,4,3,2
Serbia,1991,1,1,1,7,1.85,88,4,2,8,6,2,NA,1,2,35.7,35.8,35.75,44.81860352,20.46809387,68,7,08:42:05,6,1,2,1,NA,4,4,4,3,3,1,4,3,1,NA,2,8,3,2,8,2,2,5,2,NA,NA,NA,NA,NA,NA,NA,NA,NA,NA,2,1,5,4,1,4,3,2,1,3,2,1,3,2,4,3,1,1,1,1,3,2,2,3,5,1,3,2,3,3,3,3,3,3,3,3,3,3,3,3,3,3,3,3,3,3,3,1,1,1,2,3,3,2,2,7,1,7,3,4,1,2,1,1,5,7,1,1,NA,4,8,3,1,1,1,NA,1,1,4,7,NA,1,1,5,5,5,5,5,5,5,5,5,6,7,7,7,7,7,7,2,2,1,1,4,3,4,2,1,2,3,2,3,2,3,1,1,1,1,1,1,1,1,5,3,4,4,3,1,4,4,5,4,4,4,5,5,3,5,5,5,5,5,5,1,5,5,2,3,4,4,4,4,4,4,2,4,3,5,4,2,2,5,5,2,5,5,2,5,5,5,5,5,5,5,1,5,4,5,1
Oslo,1991,1,1,1,2,1.73,70,5,2,0,0,2,NA,1,2,35.6,36,35.8,NA,NA,75,0,09:36:20,4,1,2,1,NA,4,2,4,1,2,2,5,5,1,NA,2,8,1,NA,NA,6,1,NA,2,OSI Boksing,Seminar PSY101,Seminar PSY1101,OSI Dans,Kollokvie,7,5,5,7,3,4,4,5,3,4,3,4,5,4,4,4,3,3,2,2,3,1,2,2,3,3,2,4,2,5,2,3,1,2,1,2,1,1,1,1,3,2,1,2,1,2,1,1,2,1,1,1,1,1,1,2,4,1,1,6,3,1,3,1,2,2,1,1,5,2,3,5,6,5,5,3,2,3,2,7,6,5,6,2,3,3,2,2,4,2,4,4,2,1,1,2,2,1,2,1,2,2,1,1,2,1,2,2,2,1,1,2,2,1,1,2,3,3,4,2,2,2,1,1,1,2,2,3,2,4,5,4,2,2,4,1,2,2,5,2,2,4,3,4,2,4,4,3,2,4,5,4,5,2,3,3,2,2,4,2,1,1,2,1,5,4,2,1,1,3,4,2,3,3,2,4,3,2,1,2,2,2,4,1
SMU,1991,1,1,2,6,1.74,58,4,2,2,0,2,NA,1,2,35.8,35.8,35.8,1.293106079,103.8558044,70,26,10:14:15,5,1,2,1,NA,4,4,5,NA,8,8,7,7,2,1,2,3,1,NA,NA,1,1,NA,1,NA,NA,NA,NA,NA,NA,NA,NA,NA,NA,2,3,3,3,3,4,3,3,2,3,2,4,4,3,3,4,4,2,2,3,4,3,3,3,5,3,3,4,4,3,4,4,2,2,3,3,4,4,4,4,2,2,4,4,3,3,4,5,5,5,3,4,4,4,3,5,5,5,4,4,3,3,6,3,5,5,3,4,3,5,4,3,3,5,2,3,3,3,3,3,3,3,3,5,5,5,5,5,5,2,4,4,2,5,5,5,4,3,3,3,4,2,4,2,2,4,4,4,4,3,2,2,3,4,4,5,4,5,1,3,3,3,3,3,4,2,2,1,2,2,2,5,4,2,5,4,3,4,4,4,2,2,4,4,4,3,3,3,3,3,3,3,3,3,3,1,2,2,2,2,2,4,3,2,2,2,2,3,4,2,3,2,4,4,2,2,2,1,4
Bamberg,1991,2,1,1,7,1.71,60,3,2,4,0,2,NA,1,2,35.7,36,35.85,48.1499939,11.58329773,70,-3,11:07:08,1,1,1,1,NA,4,2,4,2,4,3,5,3,1,NA,2,4,1,NA,NA,2,1,NA,1,NA,NA,NA,NA,NA,NA,NA,NA,NA,NA,4,3,4,4,4,2,4,4,4,4,5,4,4,3,2,5,2,2,2,3,3,3,3,4,4,2,2,2,4,2,3,2,1,4,4,3,4,4,4,4,4,1,1,1,1,2,4,3,2,1,2,2,5,3,2,5,1,5,2,2,1,1,1,3,1,1,1,2,1,1,7,1,7,7,2,1,1,1,1,5,6,1,2,5,5,4,5,4,4,4,4,4,4,2,5,4,3,3,3,2,2,2,2,2,2,2,2,1,1,4,2,2,2,2,5,5,7,5,5,5,5,5,1,4,2,4,3,4,2,3,4,4,4,2,2,4,4,2,4,4,3,4,2,4,2,5,5,4,4,2,4,3,1,1,1,2,2,4,1,2,2,2,3,2,4,2,1,4,4,4,4,4,2,4,4,4,3,2,4
Oxford,1991,1,1,2,4,1.87,78,3,2,3,0,2,NA,1,2,35.7,36.1,35.9,51.75,-1.25,71,1.666666667,07:56:54,5,1,2,1,NA,4,1,5,NA,5,1,1,1,1,NA,2,8,1,NA,NA,5,1,NA,2,Sports,NA,NA,NA,NA,7,NA,NA,NA,NA,4,4,5,4,4,5,1,3,4,4,4,4,4,4,3,2,2,4,1,3,2,4,2,2,5,2,3,1,2,1,1,1,1,1,1,1,2,3,2,2,2,2,1,1,2,1,2,2,3,4,3,2,1,3,6,4,3,5,2,5,2,2,2,2,2,3,6,6,3,6,3,3,6,5,6,4,7,5,6,7,5,6,6,2,4,3,2,2,1,2,3,3,7,3,4,5,4,6,5,2,2,1,2,2,2,2,3,3,2,2,1,1,4,4,2,1,2,1,2,2,2,2,2,4,4,4,2,1,1,2,2,4,3,5,4,4,1,3,2,4,2,4,5,4,3,2,4,4,2,2,4,2,2,3,2,1,4,5,4,4,1,2,4,4,2,2,4,4,2,2,2,3,4,1,2,3,2,5,2
Poland,1991,2,1,1,4,1.65,57,3,2,13,4,1,12,1,2,35.8,36,35.9,54.3500061,18.66670227,85,3,17:56:47,9,1,1,1,NA,4,4,3,3,5,5,8,5,2,1,1,NA,2,4,2,1,1,NA,1,NA,NA,NA,NA,NA,NA,NA,NA,NA,NA,2,2,3,5,3,3,2,2,3,4,4,4,3,4,3,3,3,2,4,3,4,4,4,3,4,3,3,3,3,4,2,3,3,2,3,3,3,2,3,3,4,3,3,2,4,2,4,4,3,4,4,5,5,2,4,3,4,3,5,5,4,3,3,5,4,2,4,5,3,5,2,2,3,3,4,3,5,5,3,5,5,3,4,2,3,3,3,4,3,4,3,2,3,6,4,3,5,5,5,3,4,2,4,4,3,4,2,2,3,2,3,2,1,3,3,4,4,6,3,4,5,4,4,4,2,4,3,3,3,3,3,4,2,2,2,2,4,2,3,2,2,4,3,4,4,3,4,3,4,3,4,4,3,4,4,2,3,4,3,4,2,3,3,3,3,2,2,4,4,4,2,4,3,4,3,4,3,4,2
Oslo,1991,1,1,1,6,1.95,82,4,2,NA,NA,2,NA,1,2,35.4,36.4,35.9,59.91670227,10.75,70,-7,10:46:22,4,1,2,1,NA,4,1,4,1,1,NA,5,4,1,NA,2,7,3,1,1,5,1,NA,2,Sport,Kollektiv,Kollokvie,Ingen,Ingen,3,5,3,0,0,3,3,3,2,3,4,2,5,2,2,2,4,4,4,4,5,3,3,3,2,4,3,3,4,5,3,5,3,3,3,4,2,1,4,3,4,3,3,3,3,2,3,3,4,3,3,3,5,5,5,5,3,6,5,5,5,5,2,2,5,2,5,5,6,1,4,2,6,5,4,5,5,5,6,3,3,3,3,3,5,5,5,3,4,2,4,4,3,4,4,4,4,6,3,3,2,4,4,4,3,2,4,2,3,4,4,2,2,4,3,1,2,1,2,2,4,3,2,1,1,3,3,4,4,3,4,2,3,2,2,4,4,4,2,4,4,4,4,2,4,4,4,4,5,4,4,4,3,2,3,4,3,4,4,3,4,3,5,4,3,2,4,4,3,4,3,2,4,4,4,3,4,2,4,4,4,2,3,3
METU,1991,1,2,2,4,1.71,71,4,2,0,0,2,NA,1,2,35.8,36,35.9,39.91169739,32.84030151,78,8,10:19:21,3,2,2,1,NA,4,2,5,NA,3,3,2,2,2,1,2,6,1,NA,NA,1,1,NA,1,NA,NA,NA,NA,NA,NA,NA,NA,NA,NA,5,3,4,4,3,4,2,4,5,4,5,4,4,3,3,3,2,2,2,2,3,3,1,3,3,2,4,4,4,4,4,4,1,4,1,4,3,4,3,3,4,4,4,1,3,4,3,6,2,6,6,6,7,5,2,7,4,6,5,4,6,5,4,5,4,2,2,6,3,6,3,2,1,2,2,3,4,3,2,3,3,1,3,4,4,4,5,4,4,4,4,4,7,7,7,7,7,7,7,2,2,3,2,2,2,2,2,3,2,2,2,2,2,4,2,3,2,3,1,1,3,3,1,1,5,5,1,1,5,5,4,5,4,2,4,4,2,2,4,4,2,5,2,4,4,4,4,4,4,4,4,4,1,1,1,1,2,4,4,3,1,2,3,4,4,3,3,4,4,3,3,4,4,2,4,4,3,3,3
Zurich,1991,1,1,2,6,1.8,70,4,2,0,0,2,NA,1,2,36.13,35.69,35.91,47.36669922,8.550003052,86,6,10:36:15,1,1,2,1,NA,4,2,5,NA,6,6,8,7,1,NA,2,3,3,1,3,1,2,3,2,Pfadfinder,NA,NA,NA,NA,5,NA,NA,NA,NA,5,4,2,4,2,4,3,3,2,4,2,4,4,3,2,4,1,2,1,2,2,3,2,2,5,3,3,2,2,2,4,2,1,1,1,4,1,2,2,1,1,1,1,1,2,1,2,1,1,2,1,1,2,1,2,2,1,1,1,3,1,4,1,2,1,3,2,1,2,1,2,2,2,2,2,2,2,2,2,7,7,2,1,5,5,5,5,5,2,2,5,5,7,3,4,4,3,3,4,4,4,2,4,3,2,2,4,1,3,2,2,3,1,3,1,3,4,4,2,2,5,3,4,1,2,5,4,1,3,4,2,1,2,2,1,2,2,1,3,4,3,4,4,5,2,4,4,3,2,3,2,2,2,3,1,1,4,4,1,4,2,3,1,4,3,2,4,4,4,3,4,4,2,4,2,3,4,2,1
Kassel,1991,2,1,1,6,1.73,62,4,2,2,0,2,NA,1,2,35.9,36,35.95,51.30830383,9.566894531,54,1,10:34:06,1,1,1,1,NA,4,2,4,1,5,3,4,3,1,NA,2,6,1,NA,NA,1,1,NA,1,NA,NA,NA,NA,NA,NA,NA,NA,NA,NA,3,3,4,2,4,4,3,4,3,4,4,3,4,2,2,3,2,1,2,2,2,2,1,2,3,2,2,3,4,1,4,2,1,2,1,2,4,2,2,2,1,1,1,2,1,2,2,1,1,1,1,1,1,1,1,1,1,2,2,1,1,1,1,4,1,1,1,4,2,1,1,1,3,6,1,1,1,1,1,5,3,4,1,4,5,4,4,3,2,2,3,3,4,3,5,4,4,3,3,2,2,2,2,2,1,3,1,1,2,2,1,1,1,3,1,4,5,6,3,2,2,4,1,2,1,5,4,4,3,3,5,3,1,1,2,4,4,1,4,1,2,4,3,2,4,4,4,3,3,5,4,3,2,2,3,3,2,3,3,3,2,2,1,3,2,3,2,4,4,4,4,2,2,3,4,2,4,4,2
Oxford,1991,1,1,2,7,1.85,90,3,2,0.5,0,2,NA,1,2,35.8,36.1,35.95,51.75,-1.25,74,2.777777778,07:55:42,5,1,2,1,NA,4,4,5,NA,8,1,5,2,1,NA,2,7,1,NA,NA,3,1,NA,1,NA,NA,NA,NA,NA,NA,NA,NA,NA,NA,2,1,2,1,4,4,1,1,3,2,4,3,3,3,3,4,3,2,2,2,3,4,2,3,5,2,2,4,4,2,5,5,5,5,5,5,2,4,5,1,2,2,4,4,5,2,4,6,5,6,6,4,6,6,7,5,6,5,6,5,3,7,5,6,4,6,3,5,5,5,2,2,4,5,4,4,7,3,6,4,3,5,4,4,4,5,5,5,4,2,4,4,7,5,6,6,6,6,6,2,5,1,4,4,5,2,2,4,2,2,1,1,3,1,2,1,2,3,2,2,2,5,4,5,4,3,1,1,5,2,2,5,5,4,5,5,2,4,3,5,1,2,4,5,3,2,1,3,3,4,2,2,2,4,4,4,3,2,5,5,1,3,3,4,2,1,4,3,2,1,2,1,4,5,2,4,4,4,4
Zurich,1991,1,2,2,7,1.77,67,4,2,0,0,2,NA,1,2,35.9,36.2,36.05,46.5388031,6.628601074,76,-2,11:33:33,1,1,2,1,NA,4,2,5,NA,4,3,7,4,1,NA,2,3,1,NA,NA,1,1,NA,2,Meditationsgruppe,NA,NA,NA,NA,2,NA,NA,NA,NA,3,1,4,2,4,5,1,2,1,4,1,4,5,2,2,2,2,2,2,3,3,2,2,2,4,3,2,1,1,1,1,2,1,2,3,1,4,1,3,1,5,1,2,1,1,1,2,1,2,2,5,2,2,2,6,2,2,2,5,1,1,1,5,2,5,1,1,6,2,1,1,1,5,5,2,2,1,1,1,6,5,2,2,3,2,4,3,4,1,1,3,3,6,3,5,3,5,3,6,3,2,1,2,1,2,2,2,1,2,2,1,1,4,3,1,3,3,5,2,2,3,4,5,3,3,5,4,1,2,4,1,2,1,2,4,2,4,1,1,3,1,3,4,2,4,5,5,5,1,4,5,2,1,4,2,2,4,1,1,5,1,1,1,4,1,1,5,3,5,5,5,4,3,1,2,4,2,1,1
VCU,1991,1,1,2,7,1.8542,84.09090909,4,2,4,0,1,2,1,2,36.05555556,36.05555556,36.05555556,37.54150391,-77.6678009,81,14.44444444,09:58:39,5,1,2,1,NA,4,4,5,NA,3,3,5,5,2,8,2,8,3,1,8,1,2,4,2,work,church,NA,NA,NA,7,7,NA,NA,NA,3,2,3,2,2,2,1,3,2,2,3,2,3,2,3,3,2,2,2,2,2,2,3,4,4,3,2,4,4,3,4,4,3,2,1,4,4,4,4,4,3,2,3,2,4,2,4,4,4,4,4,4,5,5,4,4,4,2,4,4,5,3,4,5,4,3,3,3,2,3,3,3,4,3,4,3,4,4,3,3,3,4,4,5,4,5,5,4,3,1,3,3,5,5,4,5,4,4,4,2,2,1,3,2,2,2,3,4,2,4,3,4,2,3,2,3,3,4,4,4,4,2,3,3,4,4,2,4,4,2,4,5,4,2,4,4,4,3,2,4,2,4,4,4,4,4,3,3,3,3,3,4,3,4,3,1,3,4,2,4,2,3,3,2,3,2,2,4,2,2,2,3,3,4,3,2,2,2,2
Oxford,1991,2,3,2,2,1.54,48,3,2,2,0,2,NA,1,2,35.7,36.5,36.1,51.75,-1.25,71,1.666666667,08:55:21,5,1,4,1,NA,4,4,5,NA,3,2,5,4,1,NA,2,3,2,1,4,3,1,NA,2,Movie club,Pole dancing group,NA,NA,NA,5,2,NA,NA,NA,2,3,3,3,3,3,2,2,5,4,4,3,3,3,2,4,3,4,3,3,3,2,4,3,4,2,3,3,4,2,4,1,1,4,1,4,2,4,2,4,2,2,3,4,4,2,2,5,2,5,5,5,6,1,4,2,4,2,4,2,5,7,4,6,1,4,2,6,5,2,2,4,4,5,2,3,3,1,5,6,5,1,4,2,3,4,4,3,2,3,2,2,5,2,1,1,4,3,3,2,2,1,2,1,4,4,2,2,2,2,3,2,2,3,2,4,4,3,2,3,1,2,3,3,5,5,3,2,2,4,3,4,2,5,3,3,3,2,2,1,2,3,5,5,2,2,3,2,1,1,2,2,2,4,2,1,1,3,3,2,3,2,3,4,2,2,4,3,4,2,2,5,3,5,2,5,4,2,4
METU,1991,2,1,2,7,1.6,41.5,3,2,0,0,2,NA,1,2,35.8,36.4,36.1,39.91169739,32.84030151,52,3,09:39:27,3,2,2,1,NA,4,4,5,NA,1,NA,3,3,1,NA,2,8,1,NA,NA,1,1,NA,1,NA,NA,NA,NA,NA,NA,NA,NA,NA,NA,5,4,4,5,5,4,3,2,5,4,5,5,5,1,4,3,2,1,1,2,2,3,1,3,5,3,1,4,3,4,2,3,1,4,3,2,5,4,5,4,4,1,1,1,4,2,5,5,4,4,6,5,4,2,4,7,1,7,4,2,1,4,4,4,1,2,7,6,7,6,4,5,7,7,4,2,6,5,4,7,7,2,5,4,4,3,5,4,4,4,4,4,3,4,3,3,3,2,2,1,4,1,2,1,3,1,2,2,2,1,1,2,1,1,1,5,8,7,7,7,7,8,1,1,4,5,1,2,2,2,2,5,4,1,3,4,4,3,3,2,1,5,4,5,3,4,4,4,4,2,3,3,1,1,1,1,5,4,2,4,1,2,4,4,4,2,2,3,3,1,2,3,4,3,3,3,3,2,2
METU,1991,2,1,1,6,1.63,59,3,1,2,2,2,NA,1,2,35.8,36.5,36.15,39.91169739,32.84030151,62,5,11:05:32,3,2,1,1,NA,4,4,4,4,4,1,7,4,1,NA,2,8,1,NA,NA,1,1,NA,1,NA,NA,NA,NA,NA,NA,NA,NA,NA,NA,3,4,3,4,2,4,4,3,2,2,4,2,3,3,3,3,3,2,2,3,3,2,3,3,3,3,4,4,4,2,4,2,2,2,2,4,4,4,4,4,4,2,4,4,2,2,4,5,3,2,4,6,5,5,2,4,2,5,2,2,2,2,5,4,2,2,2,2,2,2,2,2,2,2,2,2,2,2,2,2,4,2,2,5,3,5,5,4,5,4,4,4,3,5,5,5,5,5,5,2,2,2,2,2,2,3,2,2,4,2,2,2,3,2,2,5,6,5,4,4,4,4,2,2,3,4,4,4,4,2,4,3,4,2,2,3,3,2,4,4,3,4,2,3,4,4,4,4,4,3,4,4,2,2,3,4,4,3,2,3,3,4,4,4,3,4,2,4,2,4,4,4,2,4,4,4,4,4,4
Oxford,1991,2,1,2,4,1.58,48,4,2,4,0,2,NA,1,2,36.3,36,36.15,51.75,-1.25,88,-2.222222222,08:41:47,5,1,2,1,NA,4,4,5,NA,8,1,8,4,1,NA,2,8,1,NA,NA,2,1,NA,2,Oxford sirens,phonetics class,NA,NA,NA,10,5,NA,NA,NA,3,2,2,4,2,2,1,3,2,4,3,2,4,2,3,3,2,3,2,2,3,2,3,3,3,3,2,3,5,3,4,2,1,4,3,4,3,2,2,4,1,2,2,3,2,3,3,6,5,6,6,6,4,5,5,4,2,3,5,5,3,5,5,4,4,5,3,5,4,5,5,3,4,4,3,4,5,3,3,5,5,3,5,4,4,4,4,4,4,2,3,3,6,6,6,5,5,5,5,2,3,2,2,2,3,3,2,2,3,2,2,2,1,2,2,3,4,3,2,2,2,3,2,5,3,4,2,2,2,2,2,5,2,1,2,4,5,2,3,4,3,2,4,3,5,4,4,4,3,4,3,4,2,2,2,2,2,4,2,3,2,2,2,4,2,2,2,3,3,2,2,4,3,2,3,4,3,2,2
Zurich,1991,2,3,1,6,1.65,57,3,2,6,0,2,NA,1,2,36,36.3,36.15,47.29200745,8.569000244,72,5,11:51:48,1,1,2,1,NA,4,2,5,NA,3,3,3,2,1,NA,2,6,1,NA,NA,3,1,NA,1,NA,NA,NA,NA,NA,NA,NA,NA,NA,NA,2,2,2,3,1,5,1,2,1,1,4,1,2,4,3,5,1,2,2,2,3,3,2,3,3,3,3,4,4,4,4,4,3,4,3,5,5,2,4,4,5,3,3,2,2,4,4,2,1,1,1,4,6,1,1,1,2,7,1,6,4,1,5,2,2,3,2,1,2,1,2,1,2,2,1,1,1,1,4,1,3,2,2,5,4,5,4,4,5,5,5,5,6,7,7,7,6,5,6,1,3,4,2,1,3,1,2,1,2,1,1,2,1,3,1,5,8,7,7,7,6,7,1,2,2,5,4,5,4,3,5,2,4,1,3,2,4,3,4,5,5,5,4,3,4,4,5,5,5,4,4,3,3,2,3,3,3,4,3,2,1,4,2,4,4,5,1,3,4,5,5,5,1,4,4,5,5,2,3
Poland,1991,2,1,1,6,1.58,48,4,2,2,4,2,NA,1,2,36.2,36.2,36.2,52.25,21,75,0,10:15:05,9,1,2,1,NA,4,4,5,1,4,2,3,1,2,4,2,8,2,1,1,1,1,NA,1,NA,NA,NA,NA,NA,NA,NA,NA,NA,NA,2,4,3,5,4,4,1,3,2,4,5,1,5,3,3,3,3,4,4,4,2,4,4,2,3,4,2,2,2,3,1,1,1,2,2,3,2,2,2,2,2,2,2,2,2,2,2,1,1,1,5,4,2,1,4,2,1,6,2,2,2,5,6,2,1,7,7,4,6,6,6,6,6,5,4,4,5,6,6,4,4,4,7,5,5,5,5,5,5,5,3,3,3,1,1,1,4,2,3,4,5,2,4,2,4,5,5,4,3,4,1,1,3,5,3,3,3,4,2,2,1,1,3,3,5,5,5,4,4,4,4,3,2,1,4,2,2,3,3,4,3,4,5,5,3,3,3,3,4,3,2,2,3,2,4,3,4,5,4,2,1,3,4,1,5,2,1,4,4,3,3,1,5,4,2,4,3,2,4
Oslo,1991,2,1,1,7,1.69,78,3,2,NA,NA,2,NA,1,2,36.1,36.3,36.2,59.91270447,10.74609375,52,-7,10:56:06,4,1,1,1,NA,4,4,4,2,8,4,8,8,2,1,2,8,3,1,6,1,1,NA,1,NA,NA,NA,NA,NA,NA,NA,NA,NA,NA,3,2,4,3,4,4,2,3,2,2,4,2,3,3,3,4,2,2,3,2,4,2,3,3,4,3,3,2,2,2,4,2,3,2,2,4,4,3,3,4,2,2,2,2,3,4,4,6,2,2,3,6,2,2,2,2,2,2,3,4,2,5,6,6,1,2,2,2,3,2,2,2,2,2,2,2,2,2,2,2,2,1,2,5,5,4,5,5,3,3,4,4,6,5,5,5,5,4,4,4,3,1,3,4,3,2,3,2,2,4,2,2,2,3,2,4,6,6,3,4,3,3,1,5,2,4,2,3,2,2,2,4,4,2,3,4,4,2,2,3,4,4,4,4,4,4,4,4,4,4,4,3,1,2,2,2,3,3,2,3,2,2,3,4,4,2,2,3,4,2,4,2,2,2,3,2,3,2,2
Poland,1991,2,1,1,7,1.65,65,4,2,12,0,2,NA,1,2,36.3,36.1,36.2,51.1000061,17.03329468,81,7,13:21:09,9,1,1,1,NA,4,4,3,1,8,6,8,5,2,4,2,4,2,1,1,1,1,NA,1,NA,NA,NA,NA,NA,NA,NA,NA,NA,NA,3,3,3,4,4,3,2,2,3,2,4,4,4,2,3,5,3,3,4,4,4,4,3,3,4,4,3,4,4,2,3,2,2,2,2,2,4,4,4,4,4,2,2,2,2,3,4,2,2,2,5,5,5,2,2,2,2,6,2,2,2,2,4,5,1,2,2,2,1,2,1,1,2,1,2,2,2,2,1,3,2,2,2,5,5,5,5,5,5,5,5,5,3,4,4,3,4,4,4,2,3,2,3,4,3,3,2,2,2,2,3,3,2,2,2,5,7,7,7,6,5,4,3,4,4,4,2,2,2,4,2,4,3,2,4,4,2,4,2,4,3,4,3,3,4,5,4,5,5,4,4,4,1,1,1,2,2,4,3,2,3,3,2,4,4,3,3,4,4,4,4,4,2,4,4,4,3,3,4
Oslo,1991,2,1,1,3,1.67,55,2,1,NA,NA,2,NA,1,2,36,36.4,36.2,59.91270447,10.74609375,84,0,10:54:10,4,1,2,1,NA,4,4,4,1,8,6,8,8,1,NA,2,5,3,1,1,1,1,NA,1,NA,NA,NA,NA,NA,NA,NA,NA,NA,NA,3,3,4,4,3,4,3,3,3,2,3,2,3,4,2,3,2,3,3,3,4,3,3,2,4,3,4,2,4,2,4,2,2,2,3,4,4,3,4,4,2,2,2,2,3,2,3,3,4,4,5,4,4,4,4,4,3,3,5,4,4,4,4,6,4,3,2,5,3,2,2,3,3,3,3,3,3,3,3,3,3,2,4,2,4,3,5,5,3,3,4,4,5,3,3,3,3,3,3,4,5,3,3,4,3,5,2,4,4,3,3,2,2,2,2,2,4,5,3,3,3,2,2,3,3,3,3,4,3,2,4,3,3,1,3,3,3,2,3,2,4,3,2,2,4,4,4,4,4,4,4,4,2,2,2,4,2,4,4,2,3,2,3,4,5,4,2,3,3,5,5,5,1,3,5,3,4,2,3
METU,1991,2,1,1,5,1.61,55,4,2,NA,NA,2,NA,1,2,36,36.4,36.2,39.91169739,32.84030151,70,3,09:50:23,3,2,4,1,NA,4,4,4,1,4,3,7,7,1,NA,2,5,1,NA,NA,1,1,NA,2,??renci Toplulu?u,NA,NA,NA,NA,7,NA,NA,NA,NA,3,4,4,5,3,2,4,4,2,4,4,3,4,2,3,3,2,2,2,2,2,2,2,3,4,2,2,3,4,2,4,4,3,3,1,2,4,4,4,4,2,1,4,2,2,1,4,6,2,2,5,5,3,2,5,2,2,2,2,5,1,2,5,2,2,2,2,2,2,2,5,2,2,2,2,2,3,2,2,2,2,2,2,4,4,4,5,5,5,5,5,5,5,6,6,6,6,5,5,1,1,1,2,1,1,1,2,4,1,1,2,2,2,3,2,5,3,3,1,3,3,2,5,4,3,4,4,5,4,2,4,2,2,1,1,1,4,2,4,4,4,4,3,2,3,4,4,4,4,3,4,4,2,2,1,1,4,5,2,4,1,3,3,4,3,4,1,4,3,5,4,4,3,4,4,4,4,2,4
Oxford,1991,1,1,1,7,1.8,78,2,2,12,0,2,NA,1,2,35.8,36.7,36.25,51.75,-1.25,74,2.777777778,08:03:50,5,1,1,1,NA,4,4,2,1,4,3,6,4,1,NA,2,6,3,1,8,1,1,NA,1,NA,NA,NA,NA,NA,NA,NA,NA,NA,NA,3,3,4,3,2,3,4,3,3,3,4,4,4,3,3,3,3,2,3,2,3,2,2,2,3,4,2,3,4,3,4,2,2,2,2,2,4,4,4,3,2,2,2,2,2,1,2,5,5,5,5,7,5,5,5,3,4,2,6,5,4,5,4,6,5,5,3,4,3,5,3,4,4,3,2,5,5,3,4,3,4,3,4,4,4,4,4,4,4,3,3,3,3,3,3,2,2,2,2,3,3,3,2,4,3,3,4,3,4,4,1,3,2,3,2,4,4,3,1,1,4,4,2,4,2,4,2,2,3,4,3,4,4,2,2,4,4,2,2,4,2,4,3,2,4,4,4,4,3,4,3,3,3,3,2,2,2,4,4,3,1,3,4,4,3,3,2,3,4,4,3,4,4,4,4,3,2,3,2
Serbia,1991,1,1,1,7,1.83,80,5,2,0,0,2,NA,1,2,36.2,36.4,36.3,44.81860352,20.46809387,88,9,11:07:10,6,1,2,1,NA,4,4,5,NA,8,8,4,8,2,4,2,4,1,NA,NA,2,1,NA,1,NA,NA,NA,NA,NA,NA,NA,NA,NA,NA,3,3,5,4,2,4,5,3,2,3,4,4,4,1,2,2,2,2,2,2,1,5,1,3,3,2,1,2,3,3,2,3,3,2,4,1,4,3,1,3,1,3,1,2,4,3,4,5,3,7,3,7,5,3,4,4,5,6,7,4,8,8,4,3,5,4,4,7,6,7,4,8,3,1,3,4,3,3,2,5,4,4,3,2,2,2,4,4,4,4,3,3,4,5,5,4,5,5,4,2,4,2,4,2,3,3,2,2,2,1,5,3,1,3,2,4,5,4,2,4,3,3,2,3,4,4,5,5,4,3,3,3,3,3,4,3,1,2,4,3,3,3,2,2,4,3,2,5,3,4,4,4,4,3,5,2,2,3,2,4,5,5,4,4,3,3,3,4,3,2,4,4,4,3,3,3,4,3,2
Serbia,1991,1,1,1,6,1.9,98,4,2,0,0,1,15,1,2,36.4,36.27,36.335,44.81860352,20.46809387,95,11,10:49:27,6,1,1,1,NA,4,4,4,1,4,3,5,5,2,1,2,2,1,NA,NA,1,1,NA,1,NA,NA,NA,NA,NA,NA,NA,NA,NA,NA,3,2,5,3,2,2,4,4,4,5,3,2,2,2,3,3,3,2,2,3,3,2,2,3,4,2,3,1,1,1,1,1,1,1,1,4,1,1,1,1,1,1,1,1,1,1,1,2,2,2,4,2,2,2,8,NA,2,NA,2,2,2,8,2,2,2,8,5,5,3,8,8,5,5,5,6,6,6,6,5,6,6,NA,3,4,4,2,5,3,4,3,4,4,4,3,4,3,4,3,3,2,4,2,4,2,2,4,2,4,2,1,2,4,2,2,2,3,3,4,3,2,3,3,3,1,2,5,4,2,4,5,2,2,3,2,2,2,2,2,4,1,1,2,2,3,2,2,3,2,2,2,2,2,1,3,4,1,1,2,1,4,4,2,2,5,3,1,2,3,2,2,2,2,4,2,3,1,1,3,4
Chile,1991,1,1,1,6,1.68,84.9,3,2,0,31,2,0,1,2,36.4,36.3,36.35,33.44999695,-70.66670227,59,2,11:54:42,2,1,2,1,NA,4,2,5,NA,3,3,4,1,1,NA,2,8,1,NA,NA,1,1,NA,1,NA,NA,NA,NA,NA,NA,NA,NA,NA,NA,1,1,1,2,3,2,1,1,2,2,4,2,2,3,3,4,1,1,3,2,5,2,3,4,5,3,3,4,3,2,3,2,1,4,2,4,4,4,4,4,3,1,2,2,2,4,4,4,2,3,5,2,6,3,5,3,1,4,1,3,1,1,5,7,2,2,3,6,3,3,2,5,2,2,3,3,2,2,2,7,7,2,6,5,5,4,5,5,5,2,5,5,4,5,6,5,5,5,6,4,4,2,4,4,4,4,4,2,4,5,2,2,2,3,1,3,4,5,3,2,1,2,4,5,4,4,2,3,4,4,2,5,5,2,4,5,2,3,2,1,2,2,4,5,4,4,2,4,3,4,5,3,2,2,2,1,5,4,3,2,2,4,4,2,4,1,2,2,4,1,1,4,2,4,2,2,3,4,4
Serbia,1991,1,1,1,7,1.84,82.5,5,2,NA,NA,2,NA,1,2,36.4,36.4,36.4,44.81860352,20.46809387,57,6,11:33:46,6,1,2,1,NA,4,4,4,4,7,7,4,4,1,NA,2,6,2,1,1,5,1,NA,1,NA,NA,NA,NA,NA,NA,NA,NA,NA,NA,5,5,5,5,5,5,5,4,4,5,5,4,4,2,2,2,1,2,1,2,2,2,1,2,5,2,2,1,1,1,1,1,1,1,1,1,1,1,1,1,1,1,1,1,1,1,1,1,1,1,1,1,1,1,1,1,1,1,1,1,1,1,1,1,1,1,1,4,1,1,1,1,7,1,1,1,1,1,1,7,1,1,1,5,5,5,5,5,5,3,5,5,1,3,1,1,1,2,2,1,1,1,1,1,1,1,1,1,1,1,1,1,1,1,1,2,2,1,2,2,2,2,5,1,5,5,5,1,1,2,1,1,1,1,5,2,3,1,5,5,5,5,5,5,5,5,1,1,3,3,1,1,3,1,1,1,1,1,5,3,1,3,5,5,5,1,1,3,1,1,1,5,1,5,1,3,1,5,1
Portugal,1991,2,1,1,7,1.57,55,4,2,4,0,2,NA,1,2,36.4,36.4,36.4,40.66099548,-7.909698486,80,13,12:06:56,8,1,2,1,NA,4,4,4,2,4,4,6,4,2,3,1,NA,3,1,8,2,1,NA,1,NA,NA,NA,NA,NA,NA,NA,NA,NA,NA,4,3,3,4,5,4,3,3,4,3,4,5,5,2,3,3,2,2,2,3,2,2,3,3,3,2,2,2,2,1,2,2,1,2,2,2,4,3,4,3,2,1,1,1,2,2,2,6,6,3,3,6,6,6,5,3,2,3,2,2,2,2,7,6,2,2,4,5,1,2,2,2,4,1,4,4,1,1,2,3,3,1,1,4,5,4,4,5,3,3,3,3,5,4,5,4,5,5,6,2,2,2,3,2,2,2,2,2,2,2,3,2,3,5,1,4,5,5,2,5,2,4,2,4,3,4,2,2,2,2,4,3,1,3,4,4,4,3,5,4,5,5,4,4,4,1,1,2,2,2,3,3,3,2,1,2,4,4,4,2,2,4,3,2,4,3,4,4,4,4,3,4,2,3,5,4,3,2,3
METU,1991,2,3,2,7,1.7,62,3,2,1,2,1,15,1,2,36.1,36.7,36.4,39.91169739,32.84030151,60,9,09:59:31,3,2,2,1,NA,4,4,5,NA,3,2,6,6,1,NA,2,8,1,NA,NA,1,1,NA,2,bkft,NA,NA,NA,NA,3,NA,NA,NA,NA,2,2,2,2,2,3,5,1,2,1,2,2,2,4,5,5,3,3,4,3,4,4,4,4,5,4,4,2,3,2,2,3,2,3,3,2,2,2,2,1,2,1,1,1,1,1,2,7,7,6,7,7,7,7,7,1,5,7,6,6,7,7,6,7,2,5,3,7,3,4,2,2,3,3,4,1,4,2,2,2,5,3,5,3,2,4,4,5,4,1,3,3,7,5,5,4,3,3,3,4,5,3,3,5,3,4,3,4,3,4,2,2,2,2,1,5,7,6,6,6,5,6,2,1,4,5,2,5,5,3,5,5,5,1,1,4,4,3,2,4,4,5,4,5,4,4,5,5,2,4,5,4,2,4,1,3,2,2,2,3,3,3,4,4,3,5,1,5,2,5,5,5,1,2,5,2,3,2,5
VCU,1991,2,1,1,5,1.6256,57.72727273,3,3,1,0,2,NA,1,2,36.61111111,36.27777778,36.44444444,37.55220032,-77.45819855,91,14.44444444,10:38:50,5,1,2,1,NA,4,4,5,NA,3,2,4,3,1,NA,2,3,1,NA,NA,2,1,NA,1,NA,NA,NA,NA,NA,NA,NA,NA,NA,NA,4,3,3,3,2,2,2,1,4,2,3,4,3,3,2,4,2,2,2,3,2,3,3,3,4,2,3,2,5,3,4,1,4,2,4,4,4,3,4,4,2,2,2,2,4,4,4,6,1,1,1,1,1,5,6,1,1,1,1,2,1,1,1,2,2,1,1,2,1,1,1,1,1,2,1,1,1,1,1,1,1,1,1,4,4,4,5,4,3,2,2,2,4,7,5,5,6,4,4,4,5,1,4,2,4,2,2,4,2,4,2,2,1,2,2,4,4,6,2,2,4,3,4,2,1,5,4,4,5,4,4,5,2,2,2,4,4,4,2,4,2,2,4,4,5,5,5,5,4,5,5,5,2,2,3,2,4,4,2,4,2,2,2,4,2,2,2,4,5,1,3,4,2,2,4,5,2,1,1
Poland,1991,1,4,2,5,1.93,95,3,2,38,5,1,20,1,2,36.4,36.5,36.45,52.25,21,72,2,10:07:31,9,1,2,1,NA,4,2,5,1,2,3,1,1,1,NA,2,4,2,1,1,1,1,NA,1,NA,NA,NA,NA,NA,NA,NA,NA,NA,NA,4,3,2,2,4,5,4,3,2,4,4,3,2,3,3,4,3,2,3,3,4,2,4,4,4,4,5,1,1,2,4,1,1,1,1,1,1,1,1,1,1,1,1,1,1,1,1,1,1,1,1,1,1,1,1,7,1,7,1,1,1,7,1,4,4,7,7,1,7,7,7,1,7,7,7,7,7,7,6,4,4,7,7,5,1,5,5,1,5,5,5,5,7,6,6,6,7,6,6,2,2,2,2,2,2,2,4,1,2,2,2,2,1,4,2,5,7,6,7,5,6,3,2,4,1,5,1,1,1,1,1,5,5,1,1,5,5,2,5,1,1,1,5,5,1,1,1,1,1,1,1,1,5,3,4,1,4,4,4,5,2,2,4,5,3,1,2,1,4,1,1,1,5,5,1,4,3,1,1
METU,1991,2,1,1,5,1.64,85,4,2,3,0,1,15,1,2,36.5,36.4,36.45,39.91169739,32.84030151,64,2,11:02:26,3,2,2,1,NA,4,4,4,1,8,5,8,8,1,NA,2,8,1,NA,NA,1,2,8,2,siyasi parti,NA,NA,NA,NA,7,NA,NA,NA,NA,2,3,3,1,2,2,2,2,3,5,4,2,4,3,4,3,2,2,1,2,2,3,3,3,3,3,2,2,2,2,2,4,1,2,1,4,4,4,3,4,4,1,1,1,2,1,3,5,1,2,1,2,1,1,1,1,1,1,2,2,5,1,2,1,1,1,1,2,2,1,2,1,2,1,1,2,2,1,1,2,1,2,5,4,3,4,5,3,3,1,3,4,6,5,6,4,4,4,3,2,1,1,1,2,2,4,1,2,2,1,2,2,2,2,2,5,7,5,2,6,5,5,4,2,5,4,1,1,3,5,2,5,2,5,4,2,2,4,1,5,4,5,4,5,5,4,4,5,3,2,4,3,1,2,2,1,1,3,2,4,2,3,2,5,2,2,2,3,4,5,5,5,4,5,4,5,2,5,5
Oslo,1991,2,1,1,7,1.8,70,4,2,0,4,2,NA,1,2,36.4,36.5,36.45,59.91270447,10.74609375,70,-2,09:56:35,4,1,4,1,NA,4,4,3,1,5,2,4,4,1,NA,2,8,1,NA,NA,1,1,NA,2,Kollokvie,0,0,0,0,4,0,0,0,0,3,4,4,4,4,3,4,3,3,4,4,4,4,2,3,3,2,4,2,2,4,2,2,2,4,2,2,2,3,2,3,1,2,2,2,4,4,4,3,4,3,2,3,2,4,3,2,2,2,5,2,5,4,1,3,5,2,5,2,2,2,5,2,2,2,2,2,3,2,2,2,2,2,2,2,1,3,3,2,2,3,1,2,4,4,4,4,3,4,4,4,4,4,5,6,6,4,5,4,3,2,1,2,2,2,3,2,1,1,3,3,1,2,2,3,5,5,5,2,3,2,3,1,2,2,4,4,4,2,2,5,4,2,1,1,4,4,2,3,2,2,2,4,3,4,4,3,4,3,4,4,4,2,2,2,4,4,3,2,3,2,2,4,2,3,2,1,3,3,4,3,4,2,4,4,4,3,4,4
SMU,1991,1,1,2,5,1.78,60,2,2,0,0,2,NA,1,2,36.5,36.4,36.45,1.293106079,103.8558044,70,26,10:51:53,5,1,2,1,NA,4,4,5,NA,2,2,3,3,1,NA,2,8,1,NA,NA,1,1,NA,1,NA,NA,NA,NA,NA,NA,NA,NA,NA,NA,2,2,3,4,2,2,2,2,2,2,2,2,4,4,3,4,3,3,2,3,3,4,3,3,4,2,3,4,5,2,5,4,4,4,2,5,4,5,4,4,3,2,4,4,4,4,4,3,3,3,4,4,3,3,5,5,3,4,3,3,3,5,3,5,3,5,3,5,4,3,4,5,4,5,3,5,5,3,5,4,4,4,4,2,2,2,2,2,2,2,2,2,1,1,1,1,1,1,1,2,4,2,4,2,2,2,2,2,4,2,2,4,3,4,4,1,2,2,2,2,2,2,2,1,3,2,2,4,2,2,2,4,2,2,4,4,2,4,2,2,2,3,4,2,3,3,2,3,2,2,3,2,2,4,2,2,2,4,2,3,2,2,4,4,2,2,2,2,4,2,3,4,2,2,2,4,2,4,2
Serbia,1991,1,1,1,7,1.84,82.5,5,2,NA,NA,2,NA,1,2,36.6,36.4,36.5,44.81860352,20.46809387,41,9,10:52:25,6,1,2,1,NA,4,4,4,2,7,6,4,4,1,NA,2,3,2,1,6,6,1,NA,2,Nektaria fitnes tim,NA,NA,NA,NA,5,NA,NA,NA,NA,5,5,5,5,5,5,1,4,4,5,5,5,5,2,2,2,1,1,1,1,2,1,1,2,5,2,1,1,1,1,1,1,1,1,1,1,1,1,1,1,1,1,1,1,1,1,1,1,1,1,1,1,1,1,1,1,1,1,1,1,1,1,1,1,1,1,1,4,1,1,1,1,1,1,1,1,1,1,1,4,4,1,1,5,5,5,5,5,5,3,5,5,1,1,4,1,1,2,2,1,1,1,1,1,1,1,1,1,1,1,1,2,1,1,1,3,2,1,2,2,2,2,5,1,5,5,5,1,1,1,1,2,1,1,5,3,1,1,5,4,5,5,5,5,5,5,1,1,2,3,1,1,3,2,1,1,1,3,5,3,1,2,3,5,3,1,1,2,1,1,1,5,1,3,1,2,1,5,1
Tsinghua,1991,2,1,1,7,1.63,52,2,2,2,0,2,0,1,2,36.5,36.5,36.5,30.58009338,114.273407,78,17,11:03:09,7,3,2,1,0,4,2,4,1,8,1,8,4,1,1,2,5,3,1,8,1,2,1,1,Ð£ÅÅÇò¶Ó,NA,NA,NA,NA,3,NA,NA,NA,NA,3,3,3,4,5,5,1,5,1,2,5,2,5,2,4,4,2,3,2,4,2,2,4,4,4,2,1,4,4,1,4,1,1,4,4,4,4,2,1,4,2,1,4,1,1,4,4,7,2,1,2,6,1,1,2,4,1,4,4,2,1,1,1,6,1,2,2,1,2,1,2,1,2,2,1,1,1,1,4,2,2,2,2,4,4,4,4,4,4,4,4,4,3,1,4,6,4,4,6,1,2,2,2,2,2,4,2,4,2,2,2,1,2,2,2,3,4,4,4,4,4,4,1,4,4,4,1,2,2,2,4,4,2,1,3,4,4,2,1,5,2,2,2,4,4,1,1,4,4,2,4,3,1,1,1,1,4,4,4,2,2,3,4,4,4,1,3,4,4,4,1,3,1,4,4,4,3,4,2
Oxford,1991,2,1,1,7,1.7018,53,4,2,0,0,2,NA,1,2,36.4,36.6,36.5,51.75,-1.25,86,0,09:00:54,5,1,2,1,NA,4,4,5,NA,4,3,7,5,2,1,2,8,1,NA,NA,3,1,NA,2,College Student Body,NA,NA,NA,NA,2,NA,NA,NA,NA,4,5,4,4,4,4,4,4,4,4,4,4,3,2,3,4,2,2,2,2,3,2,2,2,4,1,3,3,4,2,4,3,2,3,4,4,4,3,4,3,4,2,2,2,2,2,4,2,3,2,3,2,2,2,4,2,2,2,2,2,2,2,3,3,2,2,2,2,2,2,2,2,2,6,2,2,2,2,2,2,2,2,2,5,4,4,5,4,5,3,5,5,6,6,6,6,6,6,6,2,4,1,2,3,1,2,2,3,2,2,3,2,2,4,3,4,3,4,3,2,2,2,1,3,4,4,1,5,2,3,4,4,2,1,2,3,4,2,3,3,2,3,4,3,3,4,4,4,3,3,4,4,1,1,2,3,4,4,4,3,2,2,3,3,2,2,2,4,4,2,2,3,3,2,2,4,3,3,1
Tsinghua,1991,2,1,1,7,1.6,53,2,2,0,0,2,0,1,2,36.7,36.3,36.5,30.58009338,114.273407,47,5,10:19:18,7,3,2,1,0,4,4,5,0,5,2,5,1,1,1,1,1,1,1,1,1,2,1,2,NA,NA,NA,NA,NA,NA,NA,NA,NA,NA,2,1,2,3,4,4,2,2,2,2,4,4,2,2,2,3,4,3,2,2,3,2,3,1,4,2,1,4,4,4,4,4,4,2,3,5,4,4,4,4,2,2,4,4,4,4,2,6,2,2,3,4,3,2,5,2,3,2,3,3,1,2,1,1,2,2,5,5,4,5,6,5,2,2,5,2,6,2,4,3,5,3,6,4,4,4,4,4,3,4,2,4,4,2,4,5,5,5,5,2,2,1,3,2,4,2,2,3,2,2,2,2,2,4,2,3,5,7,2,5,1,1,2,4,3,4,2,4,2,2,4,4,3,2,5,4,2,2,4,2,2,2,4,3,3,2,2,4,4,4,2,2,2,2,2,2,2,4,3,2,2,4,2,4,2,2,2,2,4,2,2,2,2,2,2,4,4,2,4
METU,1991,2,4,2,7,1.58,64,4,2,NA,NA,2,NA,1,2,36.6,36.4,36.5,39.91169739,32.84030151,56,4,09:55:26,3,2,2,1,NA,4,2,5,NA,3,7,5,8,1,NA,2,4,1,NA,NA,1,1,NA,1,NA,NA,NA,NA,NA,NA,NA,NA,NA,NA,2,4,3,3,4,2,3,3,1,2,3,3,4,3,4,3,2,3,3,3,4,3,3,3,4,3,3,4,4,3,4,5,4,4,2,4,4,4,4,4,4,4,4,4,4,4,4,6,5,3,6,7,5,6,5,6,4,6,4,4,2,2,6,6,2,2,2,5,3,5,2,1,3,3,3,6,3,3,5,3,2,3,4,5,4,5,5,5,5,4,4,4,6,6,5,3,5,4,4,3,2,3,3,2,3,4,3,4,3,4,2,4,4,4,3,3,6,4,2,2,4,3,2,4,5,5,3,5,5,5,5,4,5,1,4,4,4,3,2,3,2,4,4,2,4,4,4,4,4,3,4,4,3,3,2,2,3,2,4,4,3,2,4,2,4,4,2,4,4,2,2,4,2,4,4,4,4,2,4
Kassel,1991,2,1,2,6,1.77,68,5,2,0,0,2,NA,1,2,36.4,36.7,36.55,49.49339294,8.465301514,82,10,10:31:02,1,1,2,1,NA,4,1,5,NA,5,1,8,5,1,NA,2,8,3,1,6,4,1,NA,1,NA,NA,NA,NA,NA,NA,NA,NA,NA,NA,4,4,4,4,2,4,2,3,3,3,4,4,4,2,2,3,2,2,2,3,3,3,2,3,5,2,3,4,5,3,4,3,4,2,4,4,2,3,4,4,3,1,3,3,3,2,2,4,3,4,4,4,2,3,4,3,5,5,1,3,1,3,3,2,1,4,6,4,5,5,4,4,4,4,5,4,7,6,3,7,6,3,4,2,4,3,4,2,2,1,4,3,2,5,5,4,2,2,3,2,2,1,2,2,1,1,3,1,1,1,1,2,2,4,3,3,3,2,2,3,3,3,5,3,2,4,2,4,2,2,4,4,2,1,1,4,4,1,4,4,1,4,5,4,4,2,3,3,3,3,2,1,3,1,3,4,3,4,3,3,2,1,1,4,2,1,1,3,4,1,1,3,3,2,4,4,3,2,4
Poland,1991,2,1,1,5,1.58,50,3,1,20,0,2,NA,1,2,36.7,36.4,36.55,52.61669922,16.58329773,83,-2,10:27:32,9,1,2,1,NA,4,4,5,1,8,2,6,6,1,NA,2,6,6,8,8,1,1,NA,1,NA,NA,NA,NA,NA,NA,NA,NA,NA,NA,1,1,2,2,2,5,2,3,2,2,3,4,1,3,4,4,4,4,3,4,3,4,4,4,4,4,2,4,4,3,3,4,4,4,4,4,4,3,4,3,3,1,2,1,1,1,4,2,1,2,5,6,5,1,1,2,1,4,2,2,2,2,6,2,1,2,2,2,2,2,2,2,1,2,1,2,2,2,6,5,5,2,2,4,5,4,5,5,5,3,4,5,7,4,5,5,7,6,6,1,2,1,2,2,3,3,1,1,2,2,4,3,1,3,2,4,5,3,2,2,4,1,4,4,4,3,4,4,1,2,5,5,4,2,4,4,2,2,2,4,2,4,4,4,4,4,2,4,4,4,5,4,2,4,2,3,1,4,4,2,2,3,4,4,3,4,2,2,5,5,3,3,3,2,2,4,3,2,3
VCU,1991,2,1,1,7,1.651,67.27272727,3,2,0,0,2,NA,1,2,36.61111111,36.5,36.55555556,37.31199646,-77.63439941,54,8.888888889,10:19:03,5,1,1,1,NA,4,4,4,1,4,4,3,3,2,2,2,5,1,NA,NA,1,1,NA,1,NA,NA,NA,NA,NA,NA,NA,NA,NA,NA,5,5,5,5,5,1,5,1,5,5,5,5,5,3,3,3,3,5,3,3,3,3,3,3,3,5,1,2,2,2,2,2,2,2,2,2,2,2,2,2,2,2,2,2,2,2,2,2,1,1,1,2,1,1,1,1,1,1,2,2,1,1,1,1,1,1,1,1,1,1,1,7,1,1,1,7,1,1,1,1,1,1,1,5,5,5,5,5,5,5,5,5,1,1,1,1,1,1,1,2,2,2,1,1,2,2,2,2,2,1,2,2,1,2,1,4,3,4,3,3,3,2,2,4,5,4,5,5,5,5,2,5,5,2,5,5,2,5,2,5,2,5,2,5,5,5,5,5,2,4,5,2,2,2,2,2,2,2,2,2,2,5,5,2,5,5,2,4,5,5,5,4,2,2,4,2,2,5,5
Poland,1991,2,1,1,7,1.59,49,3,2,10,9,2,NA,1,2,36.5,36.7,36.6,54.3500061,18.66670227,79,-2,10:05:49,9,1,1,1,NA,4,4,4,1,4,3,3,3,2,1,2,3,6,2,8,1,1,NA,1,NA,NA,NA,NA,NA,NA,NA,NA,NA,NA,2,2,5,2,2,5,1,1,3,5,4,2,4,2,2,3,4,3,3,3,2,3,2,3,5,4,3,3,3,2,3,3,1,2,1,3,4,4,4,4,4,2,2,2,3,2,4,2,1,2,5,2,5,2,2,3,1,6,2,4,1,1,4,4,1,2,3,6,4,4,4,5,4,6,3,3,4,2,5,6,6,3,3,4,1,3,4,2,2,2,2,2,4,3,3,2,4,3,2,1,1,1,2,1,2,1,1,2,2,1,2,3,1,2,2,5,7,7,6,6,6,6,1,5,1,5,5,5,5,3,5,1,3,1,4,2,4,2,3,4,5,5,4,5,3,4,4,5,2,2,5,2,1,4,2,3,3,4,4,3,2,2,4,4,4,5,2,5,3,4,5,4,4,4,4,4,4,2,4
Poland,1991,2,1,1,7,1.71,62,2,1,2,1,2,NA,1,2,36.4,36.8,36.6,54.3500061,18.66670227,86,1,09:31:03,9,1,1,1,NA,4,1,2,1,1,NA,4,4,1,NA,2,8,6,2,7,1,1,NA,1,NA,NA,NA,NA,NA,NA,NA,NA,NA,NA,4,4,3,4,5,5,3,3,2,3,3,5,5,4,5,4,4,2,3,2,3,3,4,5,5,4,4,4,5,4,4,4,3,4,4,5,5,4,5,5,5,2,3,2,4,3,5,5,5,5,4,5,7,5,5,4,5,3,3,4,4,5,5,7,3,3,3,4,3,3,2,2,4,2,3,2,5,3,1,6,3,2,4,3,3,4,3,3,2,2,1,1,6,7,7,7,7,6,6,3,4,4,2,2,2,3,4,2,2,2,2,2,2,3,2,5,7,5,6,6,6,6,2,4,4,4,2,4,3,4,4,4,4,2,4,4,4,4,3,4,2,4,5,3,3,3,3,4,2,4,4,2,1,3,2,2,4,4,2,4,2,3,3,3,3,3,2,3,4,4,3,4,4,4,4,4,4,2,5
Zurich,1991,2,1,1,7,1.68,77,5,2,5,0,2,NA,1,2,36.7,36.6,36.65,47.40910339,9.335494995,71,8,11:25:12,1,1,2,1,NA,4,4,5,NA,8,6,4,3,2,6,2,8,1,NA,NA,3,1,NA,1,NA,NA,NA,NA,NA,NA,NA,NA,NA,NA,3,2,4,4,2,4,2,3,3,4,4,4,3,3,3,4,2,2,2,2,3,2,2,3,3,2,3,2,2,2,4,2,2,2,2,4,4,3,2,3,2,1,2,2,2,2,4,5,3,2,2,4,2,2,2,2,2,3,2,3,2,2,2,4,2,2,2,4,2,2,3,2,2,2,2,2,2,3,2,4,4,2,3,5,5,5,5,5,4,3,4,4,2,4,4,4,4,4,4,2,2,2,2,2,2,3,2,2,2,2,3,2,2,3,2,5,5,4,5,3,2,5,2,2,2,4,4,4,2,1,2,4,2,3,2,2,2,2,2,3,4,4,3,3,3,4,4,4,4,4,4,4,1,1,2,3,4,3,4,2,2,3,3,3,3,2,2,4,4,2,4,4,3,4,4,4,3,3,2
SMU,1991,1,1,2,6,1.8,85,2,2,4,4,2,NA,1,2,36.7,36.6,36.65,1.293106079,103.8558044,79,26,09:32:36,5,1,2,1,NA,4,4,5,NA,8,6,6,4,1,NA,2,8,1,NA,NA,1,2,3,1,NA,NA,NA,NA,NA,NA,NA,NA,NA,NA,3,3,3,4,3,3,3,3,2,3,5,3,3,2,3,3,2,4,2,5,1,2,2,3,4,2,3,3,3,3,3,3,2,3,3,4,2,2,2,2,2,2,2,2,2,2,2,4,4,4,4,4,5,4,4,4,5,4,4,5,4,2,4,4,3,4,4,5,4,4,4,4,4,5,4,3,4,3,4,4,4,4,4,2,3,4,3,3,2,2,3,3,6,7,7,7,7,7,7,3,2,5,3,3,3,3,3,3,3,4,2,3,2,4,2,2,2,3,2,2,2,2,3,4,4,4,4,2,4,3,3,3,3,2,3,4,4,5,3,4,3,3,4,4,4,4,4,4,3,4,4,3,3,3,3,4,2,3,3,4,2,2,3,3,3,3,4,3,4,3,3,3,3,5,3,4,4,2,5
Kassel,1991,1,1,2,5,1.83,80,3,2,0,0,2,NA,1,2,36.7,36.7,36.7,NA,NA,NA,NA,11:09:54,1,1,2,1,NA,4,4,5,NA,5,2,5,5,1,NA,2,4,3,8,8,3,1,NA,1,NA,NA,NA,NA,NA,NA,NA,NA,NA,NA,4,2,3,5,2,4,3,4,2,4,4,1,4,3,2,2,3,2,2,2,2,2,2,2,4,2,2,3,4,2,4,2,2,2,2,2,3,3,2,3,2,2,1,2,2,2,2,4,3,4,3,4,4,2,3,5,3,3,4,5,2,3,2,4,2,3,2,3,4,4,4,4,5,4,2,2,5,5,3,5,4,3,5,5,5,5,5,4,3,5,5,5,6,3,4,5,4,4,4,3,3,1,4,2,3,3,3,4,2,2,2,2,2,4,3,3,3,2,2,2,3,2,2,3,3,4,4,4,2,3,4,4,4,3,2,3,3,2,4,4,3,4,4,4,2,3,3,4,3,3,3,2,2,2,2,1,1,4,3,2,2,4,3,4,3,2,2,4,4,2,2,2,4,2,2,2,2,2,1
Poland,1991,2,1,1,4,1.7,70,2,2,3,6,2,NA,1,2,36.9,36.5,36.7,51.1000061,17.03329468,78,0,11:03:26,9,1,1,2,2,4,4,4,1,7,4,4,3,2,1,2,8,6,1,4,1,1,NA,1,NA,NA,NA,NA,NA,NA,NA,NA,NA,NA,1,1,1,1,1,2,1,1,1,1,1,1,1,5,4,5,3,2,4,4,5,2,4,4,4,4,5,1,5,5,5,2,1,4,1,5,2,4,5,4,5,2,2,2,2,2,5,1,1,2,1,6,6,1,1,1,1,7,1,6,1,1,7,1,2,6,2,7,2,5,2,1,1,2,6,2,7,6,6,7,7,2,6,1,3,1,4,2,2,1,4,2,7,5,5,5,7,7,7,1,2,4,2,2,4,4,2,2,2,1,4,1,1,1,1,4,5,7,6,6,6,6,1,5,4,4,4,4,4,4,4,5,5,2,4,4,4,2,4,5,5,5,2,2,5,5,5,5,5,5,5,5,1,1,1,2,2,5,1,4,5,2,2,5,2,5,1,5,5,5,5,5,1,1,5,5,5,1,5
VCU,1991,1,1,1,5,1.7526,76.59090909,3,2,0,0,2,NA,1,2,36.77777778,36.72222222,36.75,38.92660522,-77.39360046,78,5.555555556,10:23:00,5,1,2,1,NA,4,4,5,NA,3,2,1,1,1,NA,2,2,3,1,1,1,1,NA,1,NA,NA,NA,NA,NA,NA,NA,NA,NA,NA,3,1,5,1,1,3,1,2,1,1,3,1,1,2,1,5,3,4,3,2,3,2,3,3,2,3,4,2,3,2,3,5,4,4,3,3,2,3,2,5,4,5,4,3,3,3,3,5,6,4,5,4,4,5,4,4,6,3,5,6,6,6,5,6,5,6,4,5,2,4,5,5,4,4,2,2,4,2,5,2,3,2,3,4,4,4,4,4,4,4,4,4,3,5,5,4,6,5,4,4,3,3,5,3,4,2,4,5,2,4,4,4,2,5,4,5,6,5,3,2,5,5,3,4,5,5,5,3,3,3,3,4,3,2,5,5,2,2,3,3,3,4,4,4,4,4,4,4,4,4,5,5,3,3,4,3,3,3,3,4,5,2,4,3,5,5,3,3,5,2,3,4,2,5,3,4,3,5,3
Tsinghua,1991,2,1,1,7,1.67,52,2,2,0,0,2,0,1,2,36.5,37,36.75,39.92889404,116.3883057,22,8,10:45:28,7,3,2,1,0,4,4,5,0,3,3,4,2,1,1,1,2,2,1,3,1,2,1,2,NA,NA,NA,NA,NA,NA,NA,NA,NA,NA,3,2,2,1,3,3,1,2,2,1,3,2,1,3,4,4,4,4,2,3,3,3,3,3,3,2,4,4,4,3,4,3,2,4,4,3,3,2,3,3,2,1,3,2,2,2,3,6,4,4,6,7,3,4,3,4,4,4,3,3,4,4,7,6,3,6,2,1,7,1,1,1,3,3,2,2,2,2,1,2,1,3,3,3,4,4,2,4,2,4,3,4,6,2,4,4,6,5,6,4,3,2,3,3,4,3,2,2,2,3,3,2,1,2,2,4,5,6,6,5,2,5,2,4,4,4,2,4,2,3,3,5,2,2,2,4,4,2,2,2,4,4,4,4,4,4,4,4,2,4,3,2,3,3,3,4,4,3,4,4,3,4,3,3,3,4,2,4,4,4,4,3,2,3,5,3,3,4,2
Poland,1991,2,1,1,7,1.58,92,3,1,5,0,2,NA,1,2,36.81,36.71,36.76,49.81669617,19.03329468,52,7,09:55:26,9,1,1,2,3,4,2,4,1,4,3,3,1,2,1,1,NA,6,1,1,1,1,NA,1,NA,NA,NA,NA,NA,NA,NA,NA,NA,NA,2,1,2,4,3,4,1,1,2,4,3,3,3,4,4,3,3,3,3,3,4,4,2,3,4,3,3,4,3,4,4,2,2,2,2,4,4,4,2,3,2,2,2,2,3,2,2,2,1,1,2,2,4,1,2,1,2,7,1,1,1,2,5,5,1,2,2,5,2,2,2,1,3,4,3,2,4,3,2,6,6,2,3,4,4,3,4,4,3,4,2,2,5,5,4,4,5,4,3,2,2,2,2,2,3,2,2,2,2,2,2,2,2,3,2,4,5,3,4,5,5,4,3,5,4,4,2,3,2,2,3,5,4,4,2,5,4,4,4,4,2,4,3,4,3,5,3,5,3,2,4,3,2,3,2,2,3,4,3,2,2,3,3,2,2,2,2,3,4,2,2,4,3,2,2,3,4,2,4
METU,1991,1,1,1,4,1.76,93,4,2,18,8,2,NA,1,2,37,36.6,36.8,39.91169739,32.84030151,69,6,10:08:46,3,2,2,1,NA,4,4,4,4,8,5,8,3,1,NA,2,8,1,NA,NA,1,1,NA,1,NA,NA,NA,NA,NA,NA,NA,NA,NA,NA,2,4,3,4,4,4,3,2,2,4,3,5,4,3,2,3,2,2,2,2,3,2,2,3,4,2,2,1,5,1,5,4,1,1,1,1,4,1,4,4,2,1,1,1,1,1,2,3,1,1,1,5,1,1,1,2,1,3,1,1,1,2,1,2,1,1,2,1,2,1,1,2,1,1,2,2,2,1,1,2,2,2,1,4,4,4,3,4,4,4,2,4,5,4,5,4,4,3,4,1,3,1,2,2,4,1,1,2,1,1,2,1,2,3,3,3,4,2,2,1,4,2,1,1,4,4,4,3,3,1,3,5,1,1,3,4,4,4,1,4,3,4,4,1,4,3,4,4,4,4,4,4,2,2,2,1,4,4,4,2,2,2,1,5,1,1,1,3,2,3,2,2,2,3,2,2,2,4,2
Chile,1991,2,1,1,7,1.67,85,3,1,0,1,1,NA,1,2,36.8,36.8,36.8,33.44999695,-70.66670227,62,11,10:32:56,2,1,2,1,NA,4,4,4,1,4,3,6,4,1,NA,2,8,4,1,8,1,1,NA,2,Pandemic,NA,NA,NA,NA,4,NA,NA,NA,NA,3,2,3,2,2,3,1,2,3,4,3,2,5,3,4,3,2,2,2,2,3,2,2,4,4,3,2,2,4,2,4,2,1,2,2,4,4,4,4,4,1,2,1,2,4,2,4,2,1,1,1,1,1,3,1,2,1,1,1,1,2,1,7,1,1,1,1,1,1,2,1,1,1,1,2,2,2,1,1,2,2,7,1,4,3,4,4,3,4,2,4,4,4,5,5,5,4,4,4,4,4,1,4,4,2,4,2,4,3,4,1,1,1,2,1,4,6,7,4,6,2,6,1,5,4,2,1,4,4,4,2,5,4,1,5,5,2,4,4,1,3,5,4,3,3,5,2,4,2,2,4,2,1,4,2,4,4,4,2,4,2,2,2,4,2,5,2,2,4,5,4,4,2,4,4,5,4,2,4
VCU,1991,1,1,2,5,1.8796,131.8181818,2,2,15,0,2,NA,1,2,36.77777778,36.83333333,36.80555556,NA,NA,91,14.44444444,10:04:25,5,1,2,1,NA,4,4,5,NA,3,3,7,3,1,NA,2,8,2,8,8,2,1,NA,2,The Underground Crew,NA,NA,NA,NA,7,NA,NA,NA,NA,3,2,2,3,2,4,3,4,2,1,3,4,2,5,5,5,3,4,2,3,5,3,3,4,5,3,5,4,4,4,5,5,4,2,5,4,4,5,3,5,4,3,3,3,4,3,4,6,7,7,7,4,7,7,6,7,7,7,3,5,5,7,5,7,4,6,4,6,5,6,4,5,5,2,6,4,6,4,4,5,6,3,6,3,3,3,3,3,4,4,4,4,3,5,5,5,4,4,6,4,5,3,3,4,4,4,2,4,4,5,3,4,3,2,3,3,5,3,2,4,5,1,4,4,5,4,2,3,3,2,3,5,4,2,2,4,3,4,3,2,2,4,4,5,4,5,5,3,2,3,3,2,4,5,2,4,3,4,3,2,3,5,5,3,4,4,3,3,4,4,3,4,3,4,3,3,3,2,3
VCU,1991,2,1,1,7,1.6002,59.54545455,3,2,3,0,2,NA,1,2,36.94444444,36.72222222,36.83333333,37.55220032,-77.45819855,97,11.11111111,09:38:37,5,1,2,1,NA,4,2,5,NA,2,2,3,1,1,NA,2,3,3,1,1,1,1,NA,1,NA,NA,NA,NA,NA,NA,NA,NA,NA,NA,3,4,5,5,3,3,1,1,2,1,3,2,3,3,3,4,3,3,3,3,4,3,3,3,4,2,4,4,4,2,4,2,1,1,5,3,4,4,4,4,4,1,1,1,2,1,4,7,5,7,7,5,6,7,7,5,1,5,6,5,7,7,1,7,1,3,3,6,5,5,3,4,4,5,2,2,2,2,4,4,5,5,3,4,3,4,4,5,5,2,4,4,3,4,4,4,3,2,3,2,5,1,3,2,2,4,5,3,2,1,1,3,1,2,1,4,6,6,3,3,6,6,1,2,1,5,5,4,5,3,4,1,1,1,1,1,5,1,5,3,2,3,4,2,4,5,5,5,3,3,4,3,1,2,1,4,5,4,4,3,4,4,4,3,2,3,2,1,5,4,4,3,3,2,4,5,3,1,5
Serbia,1991,1,1,2,6,1.83,73,4,2,0,0,2,NA,1,2,36.8,36.9,36.85,44.81860352,20.46809387,88,9,10:56:39,6,1,2,1,NA,4,4,5,NA,5,3,6,6,1,NA,2,3,1,NA,NA,2,1,NA,1,NA,NA,NA,NA,NA,NA,NA,NA,NA,NA,4,5,4,4,2,4,3,5,4,4,4,2,4,3,2,2,2,2,1,3,3,2,2,1,5,2,2,2,4,3,3,2,1,1,1,3,2,2,2,3,1,1,3,1,1,1,3,5,2,2,4,7,5,2,1,3,2,NA,2,3,2,2,4,2,1,3,1,5,NA,2,1,1,3,NA,1,1,7,NA,1,3,4,1,NA,5,4,4,5,5,3,2,4,3,5,5,6,4,5,3,5,2,4,1,4,1,2,1,2,4,1,1,2,2,2,3,4,3,4,3,2,4,4,3,2,4,4,4,2,1,2,4,2,5,2,2,3,3,4,3,4,4,4,4,3,4,3,3,2,2,1,5,2,2,4,1,2,2,5,5,4,3,2,3,4,4,2,1,5,4,2,3,3,4,2,4,2,5,3,5,1
SMU,1991,1,1,1,1,1.83,88,4,2,0,0,2,NA,1,2,36.7,37,36.85,1.293106079,103.8558044,71,26,09:12:23,5,1,2,1,NA,4,4,4,1,3,3,4,2,1,NA,2,4,1,NA,NA,1,1,NA,1,NA,NA,NA,NA,NA,NA,NA,NA,NA,NA,2,3,4,4,4,2,4,2,3,4,4,3,4,3,3,4,3,2,2,3,3,3,3,3,3,3,3,4,3,4,3,2,3,3,4,3,4,2,2,2,4,4,4,3,2,4,4,5,4,3,5,5,6,5,5,2,6,3,6,3,5,5,5,5,6,5,2,5,2,5,5,3,3,3,3,2,2,2,3,2,2,2,3,5,5,4,5,5,4,4,5,5,3,6,6,6,6,6,5,2,2,2,4,3,4,2,2,2,2,2,4,4,4,4,2,4,2,3,2,2,2,2,4,4,4,4,4,4,4,4,2,5,4,4,4,5,2,4,2,2,4,4,3,3,4,3,2,4,4,4,4,4,4,4,2,4,4,5,4,4,4,3,4,3,4,4,4,4,4,4,4,4,3,4,3,4,4,2,2
Tsinghua,1991,1,1,1,7,1.7,65,3,2,1,0,2,0,1,2,36.8,36.9,36.85,39.92889404,116.3883057,51,7,10:42:58,7,3,2,1,0,4,2,5,0,2,2,5,4,1,1,2,2,2,2,1,1,1,1,2,ÊµÑéÊÒ³ÉÔ±,Í¬Ñ§,´´ÒµÍÅ¶Ó,NA,NA,7,2,3,NA,NA,3,4,3,4,3,4,2,4,2,3,4,2,4,3,3,3,2,2,2,3,2,3,4,3,4,2,2,4,4,3,4,4,4,4,4,4,4,3,4,3,4,3,3,3,3,4,4,5,4,3,4,6,5,3,4,2,3,3,3,3,5,3,3,3,3,3,2,3,2,3,3,3,2,2,2,2,2,2,3,2,4,2,3,5,4,4,4,4,4,4,4,4,6,2,4,6,5,5,5,2,2,2,2,2,2,4,2,4,2,2,2,3,2,4,2,5,6,6,4,6,3,2,2,4,4,4,2,3,4,4,3,4,2,2,4,4,2,2,2,2,2,2,4,5,4,3,3,4,4,4,4,4,4,2,2,2,2,4,4,3,2,4,3,4,4,3,2,4,4,4,3,4,2,4,4,4,4,2,4
Poland,1991,2,1,2,6,1.65,54,2,2,19,15,2,NA,1,2,36.92,36.84,36.88,51.1000061,17.03329468,68,-2,10:14:52,9,1,3,1,NA,4,2,2,1,1,NA,5,5,1,NA,2,8,6,1,8,1,2,6,1,NA,NA,NA,NA,NA,NA,NA,NA,NA,NA,1,2,3,2,3,3,2,1,1,2,2,1,4,3,4,4,3,1,3,2,4,2,3,4,4,4,3,2,2,1,2,1,1,2,1,1,3,4,4,4,2,1,1,1,3,1,2,4,5,1,4,4,6,2,3,2,2,6,1,1,1,5,6,6,1,5,3,6,2,3,2,2,2,2,3,2,3,2,6,7,7,3,4,4,4,4,4,4,4,5,3,2,7,2,2,5,4,5,7,4,4,4,4,3,2,4,2,4,2,2,2,1,1,3,2,5,5,6,4,4,2,4,2,2,1,5,4,4,1,2,4,3,2,1,1,2,5,2,3,2,3,5,5,4,3,4,4,4,4,4,3,2,3,3,3,2,4,3,4,1,2,5,4,4,4,3,1,4,4,4,3,2,5,5,2,5,3,1,2
Tsinghua,1991,2,1,2,7,1.55,42,3,2,0,0,2,0,1,2,36.8,37,36.9,30.58009338,114.273407,60,13,10:59:34,7,3,2,1,0,2,2,5,0,8,4,7,4,1,1,2,5,1,1,1,3,2,1,2,NA,NA,NA,NA,NA,NA,NA,NA,NA,NA,4,4,4,4,5,4,1,4,2,4,5,4,3,2,3,2,2,2,2,2,1,3,4,1,4,2,1,2,2,2,4,1,1,3,4,4,4,2,4,2,4,2,2,2,2,2,2,6,2,2,6,6,2,2,2,4,2,2,2,2,4,2,6,2,2,2,2,2,2,2,1,1,2,2,2,2,6,2,1,2,2,2,2,5,4,4,4,4,4,2,4,4,2,1,4,4,3,2,2,1,2,1,2,1,1,1,2,2,2,1,2,4,2,4,2,3,6,7,1,3,1,4,1,4,4,4,1,3,2,2,3,5,1,1,4,3,3,2,1,4,2,3,4,5,4,2,2,4,3,3,4,4,1,1,2,2,4,4,4,3,2,4,4,4,3,2,3,4,3,2,2,2,4,4,3,4,3,4,4
Tsinghua,1991,2,1,2,4,1.56,45,2,2,0,0,2,0,1,2,36.7,37.1,36.9,30.58009338,114.273407,87,17,10:03:55,7,3,2,1,0,4,4,5,0,8,1,5,3,1,1,2,4,1,1,3,1,2,1,2,NA,NA,NA,NA,NA,NA,NA,NA,NA,NA,3,2,3,3,5,5,3,3,2,3,4,1,4,4,3,3,2,2,3,2,4,3,3,2,3,4,2,2,4,1,4,2,4,2,4,4,4,4,4,3,3,2,2,2,2,2,4,5,5,5,6,5,5,5,6,3,5,2,4,3,3,5,6,6,2,5,2,3,3,3,3,5,2,3,2,3,4,2,5,3,3,2,3,5,5,5,5,5,5,5,5,5,6,2,4,5,7,7,6,2,4,4,2,4,4,4,2,2,3,2,2,4,1,4,2,2,2,4,2,2,2,4,2,4,4,4,2,4,2,2,4,4,4,2,2,4,4,2,4,4,1,2,4,4,4,2,4,4,4,4,4,4,2,2,2,4,2,4,4,2,2,4,4,4,4,2,2,4,4,2,2,4,3,2,2,2,4,2,4
SMU,1991,2,1,1,7,1.6,60,3,2,3,0,2,NA,1,2,36.8,37,36.9,1.293106079,103.8558044,70,26,10:51:34,5,1,2,1,NA,4,4,5,NA,4,2,3,2,1,NA,2,8,1,NA,NA,1,1,NA,1,NA,NA,NA,NA,NA,NA,NA,NA,NA,NA,4,3,2,4,4,2,4,4,4,3,4,4,4,3,3,4,4,2,2,2,3,3,3,3,4,2,3,5,5,5,5,4,4,4,5,4,5,5,5,5,5,4,4,4,4,4,5,6,5,5,6,7,6,5,6,3,5,3,5,4,3,3,6,7,2,3,1,2,3,2,5,6,2,2,1,1,1,1,5,2,2,3,2,5,4,5,5,5,5,5,5,5,5,5,5,5,6,5,5,2,4,1,2,2,2,2,3,2,2,2,2,2,2,4,4,3,3,5,1,2,1,3,2,5,2,4,2,4,4,4,4,5,3,1,4,5,5,5,5,4,2,4,5,4,4,4,2,4,2,2,4,2,2,3,2,2,2,4,4,2,1,4,4,4,2,2,1,2,4,2,2,2,2,4,4,4,2,1,5
Poland,1991,2,1,2,7,1.78,67,4,2,13,6,2,NA,1,2,36.99,36.87,36.93,51.1000061,17.03329468,72,0,11:29:45,9,1,2,1,NA,4,2,5,1,4,3,6,4,1,NA,2,8,2,1,1,1,2,4,2,studenci i wyk?adowcy,zesp¨®? wokalny,kurs niemieckiego,NA,NA,10,5,3,NA,NA,2,2,1,4,4,3,1,1,2,2,3,3,3,3,3,4,3,3,3,3,3,3,2,4,4,4,3,3,4,2,4,2,2,2,1,2,4,3,3,4,2,2,2,2,2,2,4,5,5,5,5,6,6,2,3,5,4,3,2,2,3,5,6,7,2,3,2,2,1,4,1,2,3,3,2,2,3,3,2,3,3,3,3,4,4,4,5,5,3,2,3,3,5,5,5,5,7,6,6,3,3,2,4,4,2,4,2,4,3,3,3,4,1,2,2,5,8,7,7,6,7,7,2,5,4,5,2,2,2,3,2,5,3,2,4,4,3,3,2,4,3,5,4,4,4,4,4,4,4,4,4,4,2,3,2,1,2,3,2,3,4,4,2,3,4,2,3,4,4,4,3,4,4,4,4,3,3,3,2
Serbia,1991,2,1,1,6,1.66,64.5,3,2,0,0,1,15,1,2,36.9,37.1,37,44.81860352,20.46809387,56,6,11:01:54,6,1,2,1,NA,4,4,2,1,4,4,4,4,1,NA,1,NA,3,7,8,1,1,NA,1,NA,NA,NA,NA,NA,NA,NA,NA,NA,NA,2,2,2,5,5,4,1,1,4,5,4,2,2,4,4,4,3,3,3,3,3,3,2,3,4,2,4,1,2,2,1,1,1,3,1,4,1,4,4,1,1,1,2,2,2,1,4,5,4,2,8,5,5,2,2,3,2,4,2,2,2,2,4,5,3,2,NA,2,NA,2,2,2,NA,NA,NA,NA,NA,NA,2,6,NA,NA,NA,5,5,5,5,5,5,5,5,5,5,5,4,4,6,5,5,2,1,2,2,2,2,2,2,2,1,2,2,2,2,2,2,3,3,4,1,2,1,2,4,2,2,4,3,4,3,3,4,4,4,4,4,3,5,2,4,5,5,3,3,3,3,3,1,1,3,2,4,4,2,4,2,2,1,4,1,4,4,4,2,4,4,4,2,5,4,4,3,4,2,1,4,1,2,1,4
Oslo,1991,2,1,1,7,1.67,79,3,1,10,0,2,NA,1,2,37,37,37,59.98620605,11.24150085,77,-6,09:57:00,4,1,2,1,NA,4,4,5,NA,5,3,4,8,2,1,2,5,1,NA,NA,1,1,NA,1,NA,NA,NA,NA,NA,NA,NA,NA,NA,NA,4,4,3,4,4,3,2,3,4,4,4,3,4,3,3,3,2,3,3,3,3,2,3,3,4,3,3,3,2,2,3,2,2,4,2,3,4,4,4,3,2,2,2,3,2,2,4,2,2,2,2,4,2,2,2,6,2,4,2,2,2,2,4,2,2,2,2,2,2,2,3,5,5,3,4,2,4,4,3,2,4,2,3,4,4,4,4,4,4,3,3,3,5,6,6,6,6,6,5,3,2,3,2,3,3,2,2,2,2,2,2,2,2,4,3,3,5,3,4,4,4,4,3,4,3,4,3,3,3,3,3,4,2,4,4,4,4,3,4,3,4,4,3,3,4,4,4,4,4,4,3,3,2,2,2,2,3,4,2,2,2,2,4,3,4,3,3,3,3,2,3,3,3,4,4,3,3,3,3
Oxford,1992,1,2,1,6,1.81,73,3,2,0,1,2,NA,1,2,34.2,35.9,35.05,51.75,-1.25,74,2.777777778,07:52:28,5,1,2,1,NA,4,4,5,NA,5,2,5,4,1,NA,2,8,1,NA,NA,6,1,NA,2,Orchestra,Choir,NA,NA,NA,10,5,NA,NA,NA,3,3,4,4,2,3,3,4,3,3,4,3,4,3,4,4,2,3,3,3,3,3,3,4,4,2,3,3,4,3,4,4,4,3,4,4,2,1,3,4,2,2,4,2,4,3,4,5,5,2,5,7,6,3,6,2,5,4,3,2,3,2,5,2,5,2,2,2,2,2,2,3,2,2,2,3,2,2,1,2,2,2,3,4,4,4,5,4,4,3,4,4,6,6,4,5,6,5,3,4,3,1,4,4,3,4,3,2,3,4,2,1,2,2,3,5,6,6,6,5,5,5,2,3,3,4,3,2,1,2,2,5,2,2,3,3,4,2,2,1,4,4,3,3,2,4,4,4,3,4,3,3,2,2,4,2,3,4,4,2,1,2,3,4,3,2,3,3,4,4,3,4,2,4,4,3,2,3,3
Oslo,1992,1,2,2,1,1.78,72,2,1,0,7,2,NA,1,2,34.3,36.5,35.4,59.91670227,10.75,58,-2,10:36:00,4,1,2,1,NA,4,1,5,NA,1,NA,1,1,1,NA,1,NA,1,NA,NA,1,1,NA,2,Studentforening,NA,NA,NA,NA,6,0,0,0,0,4,3,4,4,2,4,2,3,2,4,4,3,4,4,4,4,3,4,4,3,4,4,4,1,3,4,3,2,4,1,4,1,1,2,2,4,4,4,3,4,3,1,3,4,2,2,4,2,2,3,2,3,2,2,6,2,2,2,2,3,2,3,5,5,2,3,3,6,6,3,6,3,5,5,3,4,6,2,5,6,6,3,5,2,1,3,2,1,1,1,1,1,1,2,2,2,2,2,1,2,3,2,3,2,2,2,3,2,2,2,1,2,2,3,2,5,5,2,1,4,4,2,2,2,4,4,1,2,2,2,4,5,5,2,4,4,4,4,2,4,1,2,4,4,3,2,2,2,2,2,2,2,4,5,4,2,1,4,4,2,2,4,2,4,2,2,2,1,4,2,2,2,4,2,2,4,4,2,4
METU,1992,1,1,2,4,1.68,65,3,2,13,0,2,NA,1,2,35.3,35.6,35.45,39.91169739,32.84030151,70,3,10:49:38,3,2,2,1,NA,3,1,5,NA,4,4,4,4,1,NA,2,3,1,NA,NA,1,2,3,2,k?pr¨¹ sosyal sorumluluk,NA,NA,NA,NA,3,NA,NA,NA,NA,3,3,2,3,2,3,2,2,2,3,4,2,4,3,3,3,3,3,3,3,4,3,3,3,4,3,3,4,4,2,2,2,2,2,2,4,3,3,3,3,3,3,3,3,3,2,3,5,5,5,5,5,5,4,3,3,3,3,5,5,5,5,5,5,3,3,3,3,3,5,5,3,3,3,3,3,5,3,3,5,3,3,3,2,2,2,4,2,2,2,2,2,6,4,4,3,4,4,4,3,4,4,4,3,3,4,4,2,3,4,2,2,2,4,2,4,4,3,2,2,2,1,4,4,4,4,4,2,2,3,3,4,3,2,2,4,4,4,4,4,3,3,4,2,3,4,3,4,2,4,4,2,2,4,3,2,2,2,2,4,2,3,2,4,2,2,2,4,3,4,4,4,2,4,4,4,3,4,3
Oxford,1992,2,1,1,7,1.63,55,4,2,0,0,2,NA,1,2,34.8,36.1,35.45,51.75,-1.25,86,0,08:53:45,5,1,2,1,NA,4,4,5,NA,6,5,6,4,1,NA,2,8,1,NA,NA,1,1,NA,1,NA,NA,NA,NA,NA,NA,NA,NA,NA,NA,2,2,2,5,4,3,2,3,3,4,4,3,4,2,3,2,2,2,2,3,2,2,2,2,4,2,2,3,4,4,4,3,2,4,1,5,4,4,2,4,3,1,2,2,3,2,4,1,1,1,1,1,1,1,1,1,1,1,1,1,1,1,5,1,1,1,1,1,1,1,1,1,1,1,1,1,1,1,1,1,1,1,1,4,4,4,5,5,4,4,4,4,6,6,5,5,5,4,4,1,2,2,2,2,1,2,3,2,3,1,2,4,2,3,3,1,2,3,2,2,2,2,1,3,2,4,2,4,1,2,4,4,3,1,2,3,4,2,4,3,2,3,3,5,2,4,4,4,3,3,3,2,1,2,1,3,5,4,4,3,2,4,4,2,3,3,2,4,4,2,3,2,3,5,4,4,2,2,4
Oxford,1992,1,1,2,1,1.8542,NA,2,1,0,0,2,NA,1,2,35.1,36.1,35.6,51.75,-1.25,74,2.777777778,09:12:54,5,1,2,1,NA,1,NA,1,NA,2,4,3,2,2,2,2,6,3,1,4,1,1,NA,1,NA,NA,NA,NA,NA,NA,NA,NA,NA,NA,5,3,4,5,5,5,1,5,3,5,5,5,5,1,1,3,2,2,1,3,3,1,3,3,5,1,2,2,2,2,2,2,2,2,2,4,3,2,2,2,2,2,2,2,2,2,2,2,2,2,2,2,2,2,2,2,2,6,2,2,2,4,2,2,2,2,3,2,2,3,2,1,3,2,4,4,5,2,2,3,4,2,2,4,4,4,4,4,4,4,4,4,3,4,4,4,4,3,3,2,2,2,1,2,3,2,2,2,2,2,2,2,2,3,2,3,4,4,2,2,3,2,2,4,4,4,4,4,2,4,4,4,2,2,2,3,2,2,4,4,3,4,4,3,4,4,4,4,3,4,4,4,2,2,3,2,4,4,4,4,2,4,3,4,4,2,2,4,2,2,2,2,2,2,2,4,4,2,2
Tsinghua,1992,1,1,2,7,1.69,68,2,2,2,1,2,0,1,2,35,36.3,35.65,39.92889404,116.3883057,22,8,09:41:21,7,3,2,1,0,4,1,5,0,1,0,6,5,1,1,2,8,1,1,1,3,2,1,1,Ó¾Ð­,NA,NA,NA,NA,2,NA,NA,NA,NA,3,4,3,3,4,4,2,4,3,4,4,4,4,2,3,4,2,3,2,3,3,3,2,3,4,2,1,2,4,2,4,2,2,2,3,4,4,2,4,4,2,2,2,2,2,2,4,2,4,2,2,4,2,3,4,3,2,2,2,4,2,2,2,5,2,4,2,6,4,2,2,4,4,2,4,4,3,2,2,4,6,4,4,4,4,4,4,4,4,3,4,4,2,3,4,4,4,3,3,2,2,2,1,2,2,2,2,2,2,1,1,1,2,2,2,2,2,2,2,2,1,2,3,4,4,4,2,4,3,4,3,4,4,2,4,4,3,4,4,4,3,3,4,4,4,2,2,4,3,3,4,4,4,3,3,2,2,4,4,4,2,4,4,4,4,2,4,3,3,2,2,3,2,4,4,3,3,2,2
Chile,1992,1,1,1,6,1.9,80,3,2,1,5,1,NA,1,2,35.7,35.6,35.65,33.42628098,-70.56655884,82,8,09:58:07,2,1,2,1,NA,4,4,4,1,2,2,5,4,1,NA,2,8,1,NA,NA,1,1,NA,1,NA,NA,NA,NA,NA,NA,NA,NA,NA,NA,4,3,3,2,3,3,2,3,3,2,3,4,3,2,4,3,3,3,3,3,4,3,3,4,4,4,2,4,4,3,4,4,3,3,3,4,3,4,4,3,2,2,4,3,3,2,3,4,5,4,4,4,5,4,4,4,4,4,4,4,4,4,4,4,4,4,4,4,4,4,4,4,4,4,4,4,4,4,4,4,4,3,4,4,4,4,4,4,4,3,4,3,3,5,6,5,4,4,4,2,2,2,4,2,2,3,2,3,3,3,2,3,3,3,4,3,4,4,2,3,2,2,3,3,3,3,3,4,4,3,4,4,3,2,3,3,3,3,2,2,3,3,3,4,3,4,4,4,3,3,3,3,2,3,2,3,2,3,4,2,3,3,4,3,4,3,2,3,3,3,3,3,3,3,3,3,3,3,2
SMU,1992,1,1,1,6,1.71,66,4,2,0,3,1,2,1,2,35.6,35.8,35.7,1.293106079,103.8558044,71,26,09:25:13,5,1,1,1,NA,4,4,4,2,2,3,4,1,1,NA,2,3,1,NA,NA,1,1,NA,1,NA,NA,NA,NA,NA,NA,NA,NA,NA,NA,3,2,3,2,2,3,2,2,3,2,4,3,2,4,4,3,2,2,2,2,3,2,2,4,5,2,3,5,4,4,4,4,4,4,4,4,4,4,3,4,3,2,2,4,4,4,2,5,5,5,5,5,5,5,5,3,3,3,5,5,5,3,3,5,3,5,3,5,3,3,5,5,3,5,3,3,3,3,5,3,3,3,3,5,4,5,5,5,5,4,4,4,3,2,2,2,2,2,2,2,4,2,2,2,2,2,4,2,2,3,2,4,2,4,4,4,6,5,6,6,2,2,5,5,5,1,1,1,5,5,1,5,5,5,5,5,1,5,1,1,3,4,4,4,4,4,4,4,3,3,4,2,3,3,2,2,2,4,5,2,2,2,3,2,3,2,4,4,3,4,4,3,2,2,2,3,2,2,2
VCU,1992,1,1,2,6,1.7272,97.72727273,2,1,6,6,2,NA,1,2,35.75,35.68333333,35.71666667,37.54150391,-77.6678009,88,10,09:34:57,5,1,2,1,NA,4,2,5,NA,4,2,4,4,1,NA,2,3,3,1,3,1,1,NA,1,NA,NA,NA,NA,NA,NA,NA,NA,NA,NA,4,4,3,5,4,4,2,2,4,2,4,5,5,2,2,5,3,3,2,3,4,3,3,2,5,2,3,3,2,4,4,2,2,1,4,5,2,4,2,3,2,1,3,4,4,3,2,4,4,5,6,6,6,2,6,5,4,5,5,5,6,3,6,5,4,5,3,4,2,2,3,3,5,5,3,4,6,4,3,3,4,4,5,4,3,4,4,4,2,2,2,2,5,4,3,4,4,5,4,2,4,1,3,2,1,2,2,2,1,1,2,2,2,3,3,3,3,3,2,2,2,1,2,3,4,5,2,2,3,3,3,4,2,2,3,4,3,4,1,2,2,4,4,4,2,4,2,3,3,4,3,3,2,2,2,1,5,5,5,2,2,4,4,3,4,1,3,3,4,2,2,4,2,3,2,2,2,2,4
Oxford,1992,2,3,1,7,1.6637,55,4,2,0,0,2,NA,1,2,35.3,36.3,35.8,51.75,-1.25,88,-2.222222222,08:52:59,5,1,2,1,NA,2,2,4,1,3,1,6,3,1,NA,1,NA,2,8,8,1,1,NA,2,Oxford University Roleplaying Society,NA,NA,NA,NA,2,NA,NA,NA,NA,3,3,3,2,4,4,2,3,3,2,4,3,4,3,4,4,3,3,3,3,3,3,3,4,5,2,4,1,1,1,4,1,2,4,1,4,4,4,4,3,4,2,3,4,5,2,4,4,4,2,4,1,4,3,3,2,2,2,1,1,3,6,1,6,1,4,2,6,4,2,2,3,2,5,2,2,2,1,2,3,3,2,2,3,2,3,3,2,3,4,4,3,5,5,4,3,3,3,3,2,3,1,3,3,2,4,3,2,3,4,1,2,2,3,2,4,6,2,4,3,4,4,1,3,5,4,2,2,2,2,4,5,4,1,5,4,3,3,3,3,2,3,5,5,5,3,3,4,2,2,3,2,2,2,2,2,1,3,4,5,1,3,4,3,2,2,3,3,4,3,3,2,3,2,2,3,2,2,4
SMU,1992,1,1,1,6,1.7,73,3,2,1,0,2,NA,1,2,35.8,35.8,35.8,NA,NA,79,26,10:12:58,5,1,2,1,NA,4,4,5,NA,8,3,8,7,1,NA,2,8,1,NA,NA,1,1,NA,2,Dance Group,NA,NA,NA,NA,6,NA,NA,NA,NA,3,3,4,4,3,4,1,3,4,4,4,4,4,2,2,2,3,1,2,1,3,1,2,2,3,3,2,2,4,1,4,4,2,1,4,4,4,4,4,4,2,1,2,4,1,1,5,5,4,3,5,5,4,2,6,3,2,4,4,4,4,3,2,5,2,5,3,3,3,4,3,2,4,3,4,2,4,3,3,3,4,3,4,4,4,4,4,4,4,2,3,3,3,5,3,5,3,2,3,1,3,1,3,1,1,2,2,2,2,2,2,2,2,1,2,3,4,4,1,2,2,3,2,2,4,4,3,2,2,2,4,3,4,5,5,5,5,3,2,4,4,4,4,4,4,4,4,4,3,2,4,3,3,4,2,4,2,3,2,4,3,2,3,4,3,3,4,4,4,2,3,2,2,2,3,3,3,2,4
VCU,1992,1,1,1,7,1.8796,79.54545455,4,2,7,0,2,NA,1,2,35.88888889,35.72222222,35.80555556,37.55380249,-77.46029663,57,17.22222222,10:14:02,5,1,4,1,NA,4,4,5,NA,3,1,7,7,1,NA,2,5,3,8,8,1,1,NA,1,NA,NA,NA,NA,NA,NA,NA,NA,NA,NA,2,4,4,4,4,3,4,3,3,3,5,4,3,3,2,3,2,2,1,2,2,3,2,2,4,2,3,2,4,2,4,3,2,4,3,2,4,4,4,4,3,1,1,2,2,2,2,5,2,1,5,1,5,3,6,5,1,5,1,2,6,5,1,1,1,1,1,1,1,1,1,1,1,1,1,1,1,1,1,1,1,1,1,4,2,5,5,3,4,3,3,3,5,5,5,4,5,4,4,1,1,2,1,1,1,1,2,1,1,1,2,2,1,2,1,5,5,6,5,3,4,5,4,5,5,3,1,2,5,3,2,5,5,3,4,5,2,4,3,3,3,4,4,5,3,5,4,5,2,3,5,3,1,5,1,1,4,4,4,2,2,4,4,3,3,3,4,4,4,4,5,3,3,3,4,4,3,4,3
Kassel,1992,2,1,2,5,1.7,67,3,2,NA,0,1,6,1,2,35.1,36.6,35.85,51.31669617,9.5,54,1,10:10:11,1,1,4,1,NA,4,4,4,1,2,1,6,6,1,NA,2,5,3,4,4,1,1,NA,1,NA,NA,NA,NA,NA,NA,NA,NA,NA,NA,2,2,3,4,2,3,2,3,3,4,5,4,5,3,3,3,2,2,1,2,3,2,2,3,4,2,2,4,5,2,5,3,1,2,2,4,3,4,2,2,2,1,1,1,2,4,1,1,3,1,2,4,2,2,1,1,5,1,3,2,1,2,1,1,1,5,1,4,7,5,3,3,1,7,3,2,3,3,2,3,5,2,2,5,4,4,3,4,3,2,4,5,6,6,5,5,5,3,3,2,4,1,2,1,2,2,4,2,2,1,2,2,2,3,1,4,3,5,3,3,2,4,5,3,1,5,4,3,3,2,5,3,2,1,1,2,3,4,4,3,3,4,4,4,3,5,4,5,3,3,5,4,1,4,1,3,3,4,3,2,2,4,4,3,4,5,2,4,4,4,3,5,4,5,4,5,4,1,4
VCU,1992,1,1,1,4,1.905,88.63636364,3,2,2,17,2,NA,1,2,35.16666667,36.72222222,35.94444444,37.55380249,-77.46029663,91,14.44444444,11:07:24,5,1,4,1,NA,4,3,5,NA,1,NA,8,8,1,NA,2,5,2,1,1,2,1,NA,1,NA,NA,NA,NA,NA,NA,NA,NA,NA,NA,2,2,2,1,1,3,1,3,1,1,4,2,1,3,3,4,3,3,2,2,3,3,3,2,3,1,3,4,5,3,5,1,2,4,1,4,4,4,4,5,4,3,3,3,4,2,4,2,2,1,2,1,5,5,3,2,1,7,2,2,1,6,1,5,1,6,3,1,6,6,7,7,4,2,1,3,2,1,6,2,2,1,2,5,2,4,4,4,5,5,5,4,7,7,7,7,7,6,7,4,5,1,3,1,2,4,2,2,4,2,1,1,2,1,1,2,2,1,1,1,2,1,1,4,5,5,4,1,4,3,3,5,4,1,4,4,4,5,3,2,4,3,1,1,4,4,3,5,1,3,4,1,2,5,4,1,2,5,2,4,5,2,2,5,1,4,2,4,5,2,5,4,4,5,5,2,3,3,3
METU,1992,1,1,2,7,1.71,65,3,2,10,0,1,20,1,2,35.8,36.1,35.95,39.91169739,32.84030151,64,6,10:19:25,3,2,2,1,NA,4,4,5,NA,7,3,4,2,1,NA,2,8,1,NA,NA,1,1,NA,1,NA,NA,NA,NA,NA,NA,NA,NA,NA,NA,4,1,2,2,4,3,1,4,2,2,5,5,5,4,5,4,3,3,4,3,3,4,3,5,4,3,3,1,1,1,1,4,1,1,1,1,5,4,4,5,4,1,1,1,1,1,4,7,7,7,7,7,7,7,7,6,4,7,6,5,7,7,6,7,2,2,2,2,2,2,1,1,2,2,2,1,2,2,2,2,2,1,5,5,5,5,5,5,5,5,5,5,7,6,5,4,7,6,6,4,5,3,4,4,4,5,4,3,5,4,1,1,2,5,2,5,5,7,2,2,4,3,4,4,5,5,3,2,2,2,2,5,5,1,3,4,4,4,3,1,4,4,3,5,2,5,5,5,5,3,4,4,1,1,1,1,5,5,4,3,1,4,4,2,5,5,3,4,4,5,5,5,2,4,5,5,3,2,3
Southampton,1992,1,1,1,6,1.78,74,2,2,0,0,2,NA,1,2,35.7,36.3,36,50.917099,-1.424804688,60,3,09:44:21,5,1,2,1,NA,4,3,5,NA,3,1,2,2,2,1,2,5,1,NA,NA,1,1,NA,2,frisbee club,NA,NA,NA,NA,5,NA,NA,NA,NA,2,2,2,3,2,3,2,2,2,3,3,2,3,3,3,3,3,3,3,3,3,3,3,3,3,3,3,3,3,3,3,3,3,3,3,3,3,3,3,3,3,3,3,3,3,3,3,4,4,4,4,4,3,5,4,4,4,5,4,4,5,4,4,5,5,4,4,5,4,4,5,5,4,5,4,4,4,4,5,4,6,4,5,4,3,4,3,4,3,3,3,3,3,4,4,4,4,4,4,3,3,2,3,3,3,3,3,2,3,2,2,3,2,3,3,2,2,3,2,2,2,2,2,3,4,4,3,3,2,4,3,4,3,3,4,3,4,4,3,4,2,3,4,4,4,4,3,3,3,3,3,3,3,3,3,2,4,3,3,4,3,3,3,3,2,3,2,3,3,3,3,3,3,4,3,3,3,3,2
Kassel,1992,2,1,2,5,1.77,60,3,2,20,0,2,NA,1,2,36.1,36.1,36.1,49.3757019,8.691101074,82,1,11:14:47,1,1,3,1,NA,4,4,5,NA,6,6,6,6,1,NA,2,4,2,1,2,3,1,NA,1,NA,NA,NA,NA,NA,NA,NA,NA,NA,NA,2,2,4,4,2,3,1,3,3,2,4,4,4,4,3,4,3,3,3,3,3,2,3,3,3,2,3,2,4,2,4,2,2,2,2,4,4,4,5,3,3,1,2,2,2,1,4,5,4,3,5,6,5,4,5,4,3,5,5,5,3,3,4,2,1,4,3,5,3,4,1,2,2,5,3,3,3,4,2,6,6,2,4,4,4,4,3,4,4,4,4,4,7,5,5,6,6,5,6,3,2,5,2,3,4,3,4,1,3,2,1,1,2,2,1,4,7,6,6,3,3,3,2,4,1,3,2,4,2,2,4,4,2,1,1,4,4,1,2,2,3,5,4,3,4,5,3,4,2,4,4,2,1,3,2,3,3,4,3,2,2,4,4,4,2,3,2,4,4,5,4,4,5,5,4,2,3,4,2
VCU,1992,1,2,1,7,1.6764,72.72727273,3,2,12,28,2,NA,1,2,36.16666667,36.11111111,36.13888889,37.55220032,-77.45819855,64,10.55555556,10:41:37,5,1,1,1,NA,4,2,4,2,3,1,4,4,1,NA,2,8,1,NA,NA,1,2,4,1,NA,NA,NA,NA,NA,NA,NA,NA,NA,NA,3,4,5,4,3,3,2,3,5,5,5,3,4,2,5,5,1,1,1,2,2,3,1,5,5,1,5,2,4,2,2,3,2,2,2,3,4,4,4,4,3,1,1,1,1,1,3,2,2,2,2,3,5,2,5,1,2,2,2,6,5,5,1,7,1,3,2,2,2,2,4,3,2,2,1,1,1,1,3,3,2,7,3,5,4,5,5,4,5,5,5,5,7,7,7,7,7,6,7,4,4,2,4,4,2,3,4,4,3,4,3,1,1,3,2,5,7,5,6,2,4,4,2,3,4,4,2,4,1,1,2,4,3,2,2,2,4,2,4,2,2,4,5,4,4,5,4,4,4,2,4,4,2,2,2,2,2,4,4,2,2,4,5,4,3,2,2,3,4,2,2,3,2,3,4,2,2,2,1
Kassel,1992,1,4,2,7,1.73,69,2,1,0,0,2,NA,1,1,36.1,36.2,36.15,51.30560303,9.465194702,51,14,10:11:57,1,1,2,1,NA,4,1,5,NA,2,1,4,1,1,NA,2,4,1,NA,NA,1,1,NA,1,NA,NA,NA,NA,NA,NA,NA,NA,NA,NA,3,3,4,4,3,4,4,3,3,3,4,3,3,3,2,3,2,2,2,2,3,3,3,3,3,3,3,1,2,1,1,1,1,1,1,2,2,2,1,1,1,1,1,1,1,1,1,4,4,4,4,4,4,4,4,4,4,4,4,4,4,4,4,2,4,4,4,4,4,4,4,4,4,4,4,4,4,4,4,4,4,4,4,4,4,4,4,2,2,2,4,2,4,1,2,2,2,2,3,2,2,2,2,2,2,2,2,2,2,2,4,4,2,2,2,4,5,4,5,2,5,5,3,3,3,4,4,2,5,4,2,2,2,4,2,3,2,2,2,4,2,4,4,3,4,4,4,3,3,3,3,2,3,2,2,2,3,4,2,3,3,4,2,4,2,2,3,4,4,4,4,4,3,3,3,3,3,4,4
Oxford,1992,2,1,1,7,1.7526,63.63636364,3,2,0,0,2,NA,1,2,35.5,36.8,36.15,51.75,-1.25,74,2.777777778,07:42:54,5,1,1,1,NA,2,2,4,1,1,NA,5,5,1,NA,2,2,3,1,1,1,1,NA,1,NA,NA,NA,NA,NA,NA,NA,NA,NA,NA,2,2,4,3,2,2,2,2,2,3,3,3,2,3,3,3,2,2,2,3,2,3,2,3,4,2,2,3,4,2,4,2,2,2,4,4,4,4,4,4,3,2,3,2,2,2,3,3,3,2,3,2,4,5,3,4,2,4,2,2,2,3,2,5,2,2,2,2,3,2,3,3,2,2,1,1,5,2,2,3,4,2,2,4,4,4,4,4,4,2,2,2,4,5,5,5,4,4,4,3,2,2,3,4,2,3,4,3,2,2,3,2,2,2,2,5,7,4,4,3,2,3,2,4,4,4,2,3,3,2,4,4,3,1,3,4,4,2,2,2,3,2,4,4,4,4,4,4,3,4,4,3,2,3,2,2,2,4,2,4,2,2,2,3,2,3,2,4,3,4,4,4,2,4,2,3,2,2,4
Oslo,1992,2,1,2,7,1.82,82,5,2,0,12,2,NA,1,2,35.8,36.6,36.2,59.91270447,10.74609375,93,1,10:58:58,4,1,2,1,NA,4,4,5,NA,8,5,8,6,2,1,2,4,3,1,8,1,1,NA,2,Trening,0,0,0,0,5,0,0,0,0,4,5,5,4,5,5,4,5,2,2,4,3,2,4,4,4,2,2,2,1,4,2,1,4,3,1,4,5,5,4,5,5,5,5,5,5,5,5,5,5,5,5,5,5,5,5,5,6,2,5,7,5,5,2,5,5,1,2,4,5,7,2,5,7,1,2,3,6,5,3,1,5,3,2,3,2,2,3,2,3,3,1,3,5,5,5,5,5,5,5,5,5,5,5,5,5,5,5,5,4,3,2,2,4,2,4,4,3,4,5,2,4,2,2,2,4,6,5,3,2,3,2,4,4,4,3,3,1,5,5,1,4,2,3,5,4,2,4,2,2,5,5,4,2,5,5,5,5,5,5,5,5,3,3,3,1,1,5,3,1,2,1,1,5,4,4,5,4,4,4,4,5,5,5,5,5,5,5,1
Zurich,1992,2,3,2,1,1.65,60,5,2,2,0,2,NA,1,2,36.2,36.3,36.25,50.08329773,14.46670532,64,4,10:02:20,1,1,2,1,NA,4,1,5,NA,3,3,5,5,1,NA,2,4,3,4,6,3,2,1,1,NA,NA,NA,NA,NA,NA,NA,NA,NA,NA,4,4,5,3,4,5,3,4,4,2,5,4,2,4,2,4,1,2,2,2,3,2,2,4,4,1,3,3,4,1,2,2,1,2,1,2,3,4,4,3,4,3,4,4,2,2,4,5,2,1,3,3,5,2,2,2,3,7,1,5,3,3,5,1,2,1,1,3,2,2,1,1,2,7,3,2,2,3,1,7,1,1,2,5,1,5,5,1,4,4,4,5,5,5,7,6,4,5,5,3,1,4,1,1,2,2,1,1,1,3,1,1,1,1,1,4,6,7,5,6,6,7,2,4,4,4,4,2,4,3,3,3,4,1,5,4,2,3,2,4,3,4,4,5,3,4,5,3,1,3,4,1,3,5,4,4,2,5,1,4,2,3,4,3,4,4,4,4,4,4,3,4,5,3,5,3,3,3,5
Zurich,1992,2,3,1,3,1.7,63,4,2,0,2,1,10,1,2,36.1,36.4,36.25,47.14489746,8.155105591,86,6,09:56:10,1,1,1,1,NA,4,1,4,1,2,1,5,4,1,NA,2,4,3,1,8,1,1,NA,1,NA,NA,NA,NA,NA,NA,NA,NA,NA,NA,2,2,3,4,2,2,2,2,2,2,3,2,4,2,2,3,2,2,2,2,2,2,1,3,4,2,2,4,2,3,4,1,1,2,2,3,4,2,2,4,2,1,2,1,2,2,3,3,2,2,2,2,1,1,1,5,2,2,1,2,1,2,1,1,1,1,2,2,2,2,2,2,1,2,2,2,1,1,1,3,3,1,3,4,3,4,4,3,3,3,4,4,1,1,1,1,1,1,1,2,3,1,2,2,3,2,3,2,2,2,2,1,4,2,2,4,4,4,3,2,4,3,4,5,3,3,1,1,2,1,1,5,3,1,3,4,2,3,3,2,4,4,4,4,4,3,2,3,1,3,3,2,2,4,2,1,4,4,1,5,2,2,4,4,2,3,4,4,4,3,2,4,4,2,2,4,3,1,1
VCU,1992,2,1,2,6,1.778,72.72727273,2,2,0,0,2,NA,1,2,36.28,36.28,36.28,37.55220032,-77.45819855,74,16.66666667,09:31:32,5,1,2,1,NA,4,4,5,NA,2,2,3,3,1,NA,1,NA,3,1,3,1,1,NA,1,NA,NA,NA,NA,NA,NA,NA,NA,NA,NA,4,2,4,3,2,3,2,3,2,2,4,2,3,2,4,2,4,2,3,2,5,4,4,4,5,2,5,2,3,2,2,2,2,2,2,2,2,2,2,2,2,2,2,2,2,2,2,2,3,2,5,5,1,2,5,3,3,2,5,6,3,3,4,7,4,4,3,3,2,4,5,3,5,6,3,5,2,3,3,5,5,2,6,4,5,3,5,5,2,2,3,5,5,3,4,3,3,3,3,4,3,4,3,4,4,2,4,3,3,2,2,2,2,5,3,4,5,4,1,3,5,5,3,3,2,4,4,2,2,4,4,3,3,2,2,2,2,4,2,4,2,2,4,4,4,4,2,4,2,4,2,2,2,2,2,4,2,5,4,4,4,4,4,4,4,4,4,4,4,4,4,4,4,4,4,4,4,4,4
METU,1992,2,1,2,6,1.64,62,1,1,NA,NA,2,NA,1,2,35.9,36.7,36.3,39.91169739,32.84030151,56,4,09:41:05,3,2,2,1,NA,4,4,5,NA,6,4,5,5,1,NA,2,8,3,1,6,1,1,NA,1,NA,NA,NA,NA,NA,NA,NA,NA,NA,NA,2,5,5,5,5,5,1,4,4,4,5,4,5,5,4,2,5,2,3,4,4,4,3,5,5,5,4,1,3,3,1,4,2,1,1,4,4,5,4,4,3,1,2,1,4,1,5,7,7,7,7,7,7,7,7,6,4,7,4,4,4,7,7,7,4,4,1,4,7,7,7,7,7,7,4,4,4,3,6,6,6,1,4,1,2,2,3,1,1,1,3,1,7,6,5,2,7,7,7,1,1,5,1,1,4,4,1,3,4,1,4,1,3,4,5,5,8,7,5,7,6,6,1,1,3,5,1,5,1,5,5,5,5,3,5,5,5,4,5,5,2,2,5,5,5,1,1,1,3,1,1,1,3,5,3,5,5,5,5,5,1,5,5,5,3,1,1,1,2,1,1,3,2,1,3,3,3,1,5
METU,1992,2,1,1,6,1.58,60,3,1,0,0,1,7,1,2,36.7,35.9,36.3,39.91169739,32.84030151,74,12,10:33:15,3,2,2,1,NA,4,4,4,2,3,1,8,5,1,NA,2,8,1,NA,NA,2,1,NA,2, biyogen,NA,NA,NA,NA,7,NA,NA,NA,NA,3,2,3,4,3,2,1,1,2,2,4,3,3,3,4,4,2,2,2,2,3,4,3,3,5,3,3,2,2,2,3,4,2,4,3,3,2,3,2,3,4,1,1,1,2,1,2,5,5,2,5,6,7,6,5,5,4,4,1,5,2,2,5,5,1,2,1,2,2,5,1,1,2,2,2,2,1,1,2,2,2,1,3,5,4,5,3,4,3,3,3,3,3,4,4,4,3,3,3,2,2,2,2,2,2,4,2,2,2,3,1,1,2,3,2,4,5,5,2,3,1,3,2,2,4,4,1,2,2,2,2,4,4,2,4,4,3,3,2,2,4,4,2,4,4,5,4,4,4,3,3,2,2,2,1,1,4,4,5,3,1,5,4,4,4,4,2,4,4,4,4,4,1,4,5,4,2,1,4
SMU,1992,1,1,1,7,1.56,47,2,2,0,0,2,NA,1,2,36.3,36.3,36.3,1.293106079,103.8558044,70,27,09:38:09,5,1,2,1,NA,4,4,5,NA,2,2,6,3,1,NA,2,8,1,NA,NA,1,1,NA,2,SMU Ambassadorial Corps,NA,NA,NA,NA,4,NA,NA,NA,NA,2,4,5,4,4,4,4,4,4,4,5,4,1,2,3,3,3,2,4,2,3,3,2,2,5,1,2,2,3,3,4,4,4,2,2,4,4,4,4,4,3,2,4,3,3,2,4,5,3,3,3,2,2,2,3,2,2,3,2,2,5,5,2,4,2,3,2,5,2,2,1,1,1,2,2,2,2,2,2,4,4,1,3,2,2,4,4,2,2,4,4,4,3,4,5,5,2,2,3,2,4,2,2,2,3,4,4,2,4,2,2,2,2,3,2,3,4,4,2,2,2,2,1,2,4,4,2,5,2,4,5,4,2,1,1,2,5,3,5,2,4,4,4,5,2,5,2,5,3,2,4,4,1,4,2,2,1,4,4,2,1,4,5,2,4,2,1,4,4,5,5,2,2,4,3,5,3,2,2
Oxford,1992,2,1,1,6,1.6,45,4,1,0,0,2,NA,1,2,35.9,36.7,36.3,51.75,-1.25,74,2.777777778,07:55:17,5,1,2,1,NA,4,2,2,1,3,3,4,4,1,NA,2,6,1,NA,NA,1,1,NA,1,NA,NA,NA,NA,NA,NA,NA,NA,NA,NA,4,5,4,4,5,4,5,5,5,4,4,2,2,3,3,3,2,1,2,2,3,2,3,3,4,3,3,4,4,4,5,2,2,2,2,4,4,4,5,2,4,2,1,1,4,2,4,6,5,3,5,6,6,7,6,6,1,5,1,1,5,3,6,3,1,2,1,2,1,1,1,1,2,1,1,2,1,2,1,4,3,7,1,5,4,4,5,5,4,1,4,4,7,7,6,6,7,7,6,3,1,1,1,3,4,2,2,2,2,1,4,4,1,1,1,5,7,7,3,7,5,6,1,4,2,5,5,4,3,1,5,2,2,1,1,1,4,1,1,4,3,4,4,5,4,5,5,5,5,4,5,5,1,2,2,4,5,4,2,3,4,4,2,4,2,3,4,4,4,5,5,2,2,2,2,3,3,5,1
Southampton,1992,2,1,1,7,1.7,53,4,1,6,0,2,NA,1,2,36.3,36.3,36.3,50.917099,-1.424804688,69,5,09:54:39,5,1,1,1,NA,4,4,2,1,3,1,7,5,1,NA,2,7,3,1,5,1,1,NA,2,Dance society,NA,NA,NA,NA,5,NA,NA,NA,NA,2,2,3,4,5,5,2,2,2,1,2,2,3,3,3,4,4,3,3,3,4,3,4,2,2,2,3,3,4,2,4,4,2,3,4,4,4,4,4,3,2,1,2,1,1,2,3,6,6,6,6,5,5,7,6,2,5,5,4,2,3,5,7,7,5,3,2,5,2,3,2,1,3,2,2,2,3,3,1,3,2,2,5,5,4,4,3,2,4,4,4,2,2,2,2,2,1,1,2,2,2,1,2,2,1,3,2,2,2,2,2,2,2,4,3,5,7,4,2,2,2,3,1,2,1,5,5,5,4,4,3,1,2,1,1,4,4,2,2,5,2,2,2,4,4,5,4,3,2,4,4,1,4,1,2,2,2,3,2,2,2,2,2,4,2,4,1,4,4,4,4,4,2,2,4,4,4,2,2
Oslo,1992,1,2,1,7,1.77,67,3,2,2,1,2,NA,1,2,36.1,36.5,36.3,59.91670227,10.75,87,0,09:07:17,4,1,2,1,NA,4,4,4,1,6,3,8,8,1,NA,2,8,3,1,7,1,1,NA,1,NA,NA,NA,NA,NA,NA,NA,NA,NA,NA,4,2,2,4,4,4,2,3,3,3,4,2,4,3,3,4,3,3,2,2,4,2,3,3,5,3,3,3,4,3,4,1,5,4,2,5,4,4,4,4,3,2,3,3,4,2,4,2,2,2,3,3,3,2,5,2,3,2,2,4,3,3,5,6,2,6,2,3,2,3,2,2,2,2,2,2,3,2,1,1,2,2,2,4,4,5,5,4,3,3,4,4,5,6,5,6,5,4,5,2,2,2,1,1,2,2,1,1,1,3,3,3,2,2,1,4,6,5,2,2,5,4,3,4,5,5,2,1,2,2,2,1,4,2,5,4,2,4,3,4,4,3,3,3,4,4,4,4,4,4,4,4,2,2,3,1,2,2,3,3,5,3,2,4,3,4,2,4,3,4,4,4,2,5,4,4,3,3,3
SMU,1992,1,1,2,5,1.68,67,2,2,9,0,2,NA,1,2,36.3,36.3,36.3,1.293106079,103.8558044,79,26,10:39:50,5,1,1,1,NA,4,3,5,NA,3,1,6,5,2,2,2,2,1,NA,NA,1,1,NA,1,NA,NA,NA,NA,NA,NA,NA,NA,NA,NA,3,3,2,2,3,3,2,3,2,4,3,4,2,4,5,5,4,2,2,2,3,3,2,4,5,3,5,4,3,4,4,3,4,4,4,4,4,4,4,4,4,4,4,4,4,4,4,5,5,5,5,5,5,5,5,3,5,3,5,5,5,5,5,5,5,5,3,5,3,5,5,5,3,3,3,3,3,3,5,3,3,3,3,4,4,4,4,4,4,4,4,4,7,4,4,4,4,4,4,4,4,4,2,4,4,4,3,4,4,4,2,4,2,4,2,4,2,4,5,6,7,7,4,4,4,4,4,4,4,4,4,3,3,3,3,3,3,3,3,3,4,4,4,4,4,4,4,4,4,4,4,4,4,4,3,3,3,3,3,3,3,3,3,3,3,3,3,3,3,3,3,3,3,3,3,3,3,3,3
Bamberg,1992,1,1,1,6,2.04,105,3,2,2,0,2,NA,1,2,36.43,36.2,36.315,48.1499939,11.58329773,95,-1,10:56:01,1,1,1,1,NA,4,4,4,4,5,4,4,3,1,NA,2,5,1,NA,NA,2,1,NA,1,NA,NA,NA,NA,NA,NA,NA,NA,NA,NA,3,4,2,5,5,4,3,1,2,2,2,2,4,2,4,3,3,2,2,2,2,3,2,2,3,3,1,2,4,2,4,1,1,4,1,4,3,2,2,2,2,1,1,1,1,1,1,2,1,1,1,1,2,1,2,1,1,6,1,1,1,1,1,3,1,1,1,2,1,2,2,1,1,2,1,1,1,1,1,2,3,1,1,5,5,5,5,5,4,5,5,5,3,3,2,2,3,2,2,1,1,2,2,4,2,2,1,1,2,1,3,2,1,2,2,4,6,5,4,3,2,4,4,2,3,4,1,2,2,4,2,5,4,4,3,5,5,2,4,3,1,4,2,5,1,5,3,5,5,2,4,3,1,1,2,1,5,4,4,2,2,3,4,2,2,4,3,2,1,2,5,3,2,3,5,3,2,1,3
Bamberg,1992,2,1,1,7,1.72,55,4,2,0,0,2,NA,1,2,36.33,36.36,36.345,49.90449524,12.18429565,54,3,11:24:46,1,1,2,1,NA,4,4,5,NA,2,2,6,4,2,1,2,4,1,NA,NA,1,2,2,2,Kindertanz,Schwimmen,NA,NA,NA,2,1,NA,NA,NA,2,2,2,3,2,2,2,2,2,2,3,2,2,4,4,4,3,3,2,3,4,4,4,4,4,2,4,2,2,1,4,2,1,2,4,3,4,1,3,4,3,1,2,1,1,1,4,2,2,1,2,2,2,1,2,1,1,7,1,2,3,2,1,5,1,2,1,4,2,2,2,1,2,2,2,2,2,4,2,4,4,1,1,3,4,4,4,3,4,3,4,4,2,4,4,4,5,5,5,4,4,2,4,3,3,2,4,4,3,2,4,4,2,4,3,3,4,4,3,2,3,3,3,2,4,4,3,2,2,1,3,4,4,3,4,4,3,4,2,4,2,4,4,4,3,5,3,4,3,3,5,3,1,3,1,2,4,3,2,4,3,3,2,4,3,4,3,4,4,3,3,4,3,5,5,4,3,4,5
METU,1992,1,3,2,5,1.73,70,4,2,1,0,2,NA,1,2,36.2,36.5,36.35,39.91169739,32.84030151,60,9,11:15:15,3,2,3,1,NA,4,4,5,NA,4,4,5,5,1,NA,2,3,1,NA,NA,1,1,NA,1,NA,NA,NA,NA,NA,NA,NA,NA,NA,NA,4,2,3,2,1,3,3,4,2,1,4,2,2,3,3,3,3,2,3,3,3,3,3,3,3,3,3,2,1,2,2,4,2,4,2,2,3,4,3,3,4,3,3,3,4,4,3,7,5,5,4,6,4,5,6,2,5,6,3,4,5,5,6,6,5,6,2,5,3,2,2,5,2,5,1,2,2,3,5,4,4,3,2,5,5,5,5,5,4,5,3,4,3,3,3,2,3,2,3,4,4,4,2,4,4,4,4,3,4,4,2,3,2,3,1,4,6,2,4,4,4,2,4,4,4,4,3,3,5,5,2,4,3,4,1,5,5,3,2,3,4,4,4,2,3,4,4,3,4,4,4,4,3,3,3,3,4,4,4,4,3,4,3,3,4,4,3,3,4,3,4,3,2,4,4,4,4,4,4
SMU,1992,1,1,1,4,1.81,70,4,2,3,0,2,NA,1,2,36.4,36.3,36.35,1.293106079,103.8558044,75,26,10:29:30,5,1,2,1,NA,4,4,5,NA,1,NA,8,3,2,1,2,8,3,1,4,1,1,NA,1,NA,NA,NA,NA,NA,NA,NA,NA,NA,NA,3,2,4,3,1,3,2,3,2,3,4,3,3,3,2,4,3,3,2,3,3,2,2,3,3,3,3,3,5,3,3,4,3,5,4,2,4,4,4,4,4,4,4,3,3,4,4,7,3,2,5,5,5,4,5,4,6,3,2,5,4,4,5,4,4,4,2,2,2,3,2,2,2,1,3,2,2,1,4,3,3,1,5,4,4,4,4,5,5,3,5,4,6,6,5,5,5,5,5,3,3,3,2,3,3,3,2,3,3,2,2,4,3,3,2,3,6,6,3,2,2,5,3,3,3,3,3,3,3,3,3,4,3,1,4,4,4,4,2,2,2,2,4,3,4,4,4,4,3,3,3,3,3,3,3,3,3,3,3,3,3,3,3,3,3,3,1,3,4,4,3,4,2,3,3,3,3,3,4
Oslo,1992,1,2,2,3,1.8,69,3,2,3,0,2,NA,1,2,36.2,36.5,36.35,59.91670227,10.75,87,1,10:36:44,4,1,2,1,NA,4,4,5,NA,8,3,6,3,1,NA,2,8,3,8,4,2,1,NA,1,NA,NA,NA,NA,NA,NA,NA,NA,NA,NA,1,2,2,4,2,4,1,1,1,2,2,2,3,3,3,3,2,2,2,3,4,2,3,2,4,4,3,4,5,2,4,4,4,3,4,5,4,5,4,4,4,3,4,5,3,4,5,5,5,4,5,5,3,4,5,3,3,4,4,3,4,5,6,5,3,4,3,4,4,4,5,5,3,3,3,2,3,2,3,3,3,2,2,5,4,4,4,4,4,3,4,4,5,6,5,5,5,5,4,3,2,2,2,4,2,2,2,2,2,2,2,4,2,2,3,1,2,2,1,1,1,1,1,2,2,5,5,4,3,2,3,2,2,3,3,3,5,2,4,2,3,3,4,2,4,4,4,3,3,3,3,4,3,3,3,2,2,3,2,2,4,3,3,2,3,3,2,2,3,4,4,4,2,4,3,3,3,2,4
Oxford,1992,2,1,2,6,1.78,75.90909091,3,2,0,0,2,NA,1,2,36,36.7,36.35,51.75,-1.25,74,2.777777778,07:59:49,5,1,2,1,NA,4,4,5,NA,3,3,6,6,1,NA,2,8,1,NA,NA,3,1,NA,2,OGM,NA,NA,NA,NA,5,NA,NA,NA,NA,2,2,1,2,2,2,1,2,2,2,3,2,2,4,3,5,3,4,3,4,5,3,4,4,4,4,4,4,4,4,4,4,4,4,5,4,4,4,4,3,4,3,2,4,3,2,4,5,5,3,5,5,5,3,6,3,3,5,5,6,3,5,3,5,3,5,5,5,5,5,5,5,5,5,3,3,3,3,5,5,5,3,4,5,5,5,5,5,5,5,5,5,4,5,5,5,5,5,5,4,4,2,4,4,2,2,4,2,3,2,2,2,2,4,4,3,3,1,1,1,1,1,2,2,4,4,4,2,2,2,4,4,4,2,4,4,4,2,5,2,2,2,4,4,2,3,4,2,4,2,2,2,4,4,2,2,2,4,4,2,4,2,4,4,2,2,4,2,4,1,2,2,4,4,2,4,4,2,2
VCU,1992,2,1,1,7,1.6002,57.27272727,3,2,0,2,2,NA,1,2,36.38888889,36.38888889,36.38888889,38.43359375,-77.38870239,88,5.555555556,10:38:39,5,1,2,1,NA,4,4,2,1,2,2,4,4,1,NA,2,8,3,2,7,3,1,NA,1,NA,NA,NA,NA,NA,NA,NA,NA,NA,NA,3,2,4,4,4,4,1,3,5,4,5,2,5,2,4,4,2,2,2,2,3,2,2,2,5,2,2,2,4,2,4,1,1,2,1,4,2,2,2,2,1,1,1,1,2,1,2,2,2,1,3,2,3,5,2,2,1,3,1,2,3,5,6,5,1,2,2,5,1,1,1,2,1,3,2,1,2,1,3,2,3,2,2,4,4,4,4,5,5,5,3,3,3,5,5,3,4,4,3,4,4,1,2,2,4,3,1,1,2,1,2,2,2,1,2,3,3,5,2,3,3,4,5,2,2,5,4,2,2,3,4,2,1,1,1,2,5,1,5,3,2,4,4,4,3,5,5,5,5,1,5,4,1,1,4,3,4,4,2,5,3,2,4,4,1,4,1,2,5,4,3,2,2,5,4,3,4,2,4
Bamberg,1992,2,1,1,7,1.64,54,4,2,1,0,2,NA,1,2,36.5,36.3,36.4,49.38340759,11.04159546,62,-1,10:49:27,1,1,2,1,NA,4,2,5,NA,8,1,8,8,2,1,2,8,3,1,4,1,2,5,1,NA,NA,NA,NA,NA,NA,NA,NA,NA,NA,3,4,4,5,3,3,4,4,4,4,5,3,4,4,3,3,2,2,3,2,4,2,2,4,4,2,3,3,2,1,3,3,1,2,3,2,3,3,3,2,2,1,2,2,1,1,3,4,4,4,5,6,6,3,5,4,2,4,3,2,3,3,3,6,2,5,3,6,3,5,3,2,3,3,3,3,3,3,5,6,6,1,2,4,4,4,5,4,2,2,4,3,4,3,3,3,3,3,3,2,4,3,2,2,2,2,3,4,2,2,2,2,2,2,2,5,8,6,5,5,5,6,3,4,3,4,3,2,2,3,4,4,3,2,4,4,2,2,2,2,4,4,2,3,5,5,4,4,3,3,3,3,2,2,2,2,2,4,3,3,2,2,2,4,2,3,4,4,4,5,4,4,3,4,4,4,3,2,5
Southampton,1992,1,1,1,7,1.8,102,4,2,5,0,2,NA,1,2,35.9,36.9,36.4,51.5,-0.130004883,83,5,10:36:25,5,1,2,1,NA,4,4,4,4,8,5,8,8,1,NA,2,8,3,1,8,1,1,NA,2,Football team,NA,NA,NA,NA,6,NA,NA,NA,NA,3,4,4,3,4,4,3,3,2,3,4,4,4,2,3,3,4,2,2,3,3,2,2,3,4,2,2,2,4,2,4,2,2,2,2,3,3,3,4,3,2,2,2,2,2,1,3,2,2,2,1,2,2,2,2,2,2,2,2,2,2,2,2,3,1,4,2,5,2,4,2,2,2,2,3,3,3,3,2,3,4,2,2,3,4,3,4,4,3,2,3,3,3,3,3,2,3,3,2,2,2,1,2,2,2,2,2,4,1,2,2,2,2,3,3,4,5,3,2,2,2,3,3,5,5,2,1,2,4,4,1,5,3,3,4,5,4,4,2,2,3,2,2,2,3,4,3,3,3,3,4,3,2,2,2,1,4,4,4,2,2,3,3,3,2,2,3,4,2,2,2,3,3,4,2,3,2,4,2
SMU,1992,1,1,1,7,1.74,75,3,2,1,0,2,NA,1,2,36.4,36.4,36.4,1.293106079,103.8558044,71,26,09:58:17,5,1,2,1,NA,4,1,2,1,3,3,8,8,1,NA,2,8,1,NA,NA,1,1,NA,2,Peer Helpers,NA,NA,NA,NA,20,NA,NA,NA,NA,4,3,3,3,2,4,3,2,4,3,4,3,4,3,3,3,2,2,3,3,3,2,2,3,3,2,3,3,4,2,4,4,1,1,2,4,2,2,2,4,2,2,2,2,4,2,2,2,2,2,2,4,2,2,2,2,2,2,2,2,4,2,3,2,1,1,2,2,2,2,2,3,2,2,2,2,2,2,3,2,2,2,2,4,4,4,4,4,4,4,3,3,2,2,2,4,2,2,2,2,2,2,2,2,2,2,2,2,2,2,2,3,2,3,2,5,4,2,2,2,2,4,2,4,4,2,2,2,2,3,3,5,5,2,4,4,4,4,2,2,2,2,5,5,3,3,2,4,3,2,4,3,2,3,3,2,2,4,3,3,2,4,4,4,2,3,3,3,4,3,3,3,2,4,2,4,3,2,3
VCU,1992,2,2,1,7,1.6002,47.72727273,3,2,12,2,2,NA,1,2,36.33333333,36.5,36.41666667,44.87840271,-93.27929688,93,13.88888889,10:25:42,5,1,2,1,NA,4,2,5,NA,5,2,3,3,1,NA,2,3,3,1,2,1,1,NA,1,NA,NA,NA,NA,NA,NA,NA,NA,NA,NA,1,1,2,2,2,2,1,1,2,1,2,2,3,2,4,5,4,4,4,3,5,4,3,4,5,4,4,2,4,3,4,4,2,2,4,3,4,4,4,4,2,2,2,2,2,3,4,6,6,6,6,5,7,6,6,5,3,2,3,5,6,5,3,6,5,6,5,6,5,5,3,3,5,5,3,3,3,2,3,3,5,2,2,4,2,2,2,2,2,2,2,2,7,6,5,5,6,5,5,3,5,3,4,4,3,4,5,4,3,4,2,4,2,4,2,2,2,1,2,2,2,2,1,2,3,4,4,4,2,2,4,2,2,1,1,2,5,1,5,4,4,4,4,2,3,4,4,4,2,4,3,2,2,4,2,2,2,2,2,2,2,4,4,2,4,4,2,2,5,4,4,4,2,4,4,3,4,2,4
Zurich,1992,1,1,2,3,1.66,58,4,2,0,0,2,NA,1,2,36.5,36.38888889,36.44444444,47.56030273,8.903594971,91,3,15:23:54,1,1,2,1,NA,4,4,5,NA,2,1,8,8,1,NA,2,8,1,NA,NA,4,1,NA,1,NA,NA,NA,NA,NA,NA,NA,NA,NA,NA,3,3,4,3,3,4,2,2,3,3,2,2,3,3,2,3,2,2,2,3,3,3,3,3,4,3,2,3,3,3,4,2,2,2,4,2,2,2,2,2,2,3,2,2,3,2,2,2,2,2,2,5,1,1,3,7,2,7,4,3,5,1,2,2,1,3,5,6,4,5,5,4,4,5,6,4,6,6,4,6,6,3,3,4,4,4,4,3,3,2,3,3,2,4,3,3,2,2,2,4,4,3,4,2,2,4,2,3,4,1,1,2,3,2,2,3,3,2,3,1,2,2,4,5,3,3,3,2,2,4,2,4,4,3,4,4,4,4,2,2,3,3,4,3,4,4,3,3,2,2,3,3,2,2,2,3,4,3,3,3,3,4,2,3,3,3,3,3,3,4,3,2,3,2,3,2,2,2,2
SMU,1992,1,1,2,6,1.84,100,4,2,1,0,2,NA,2,2,36.3,36.6,36.45,1.293106079,103.8558044,71,26,10:28:22,5,1,2,1,NA,4,4,5,NA,3,3,4,3,1,NA,2,8,2,1,4,1,2,5,1,NA,NA,NA,NA,NA,NA,NA,NA,NA,NA,3,2,4,4,2,4,2,2,4,4,5,2,4,3,2,3,1,2,1,1,3,2,2,2,5,1,3,2,4,1,4,1,1,1,2,4,4,2,4,4,3,2,3,3,3,3,2,6,6,6,6,6,5,3,5,6,4,2,4,2,5,6,6,2,3,5,4,4,3,5,3,3,3,6,3,4,5,4,5,3,3,3,5,5,4,4,4,4,4,4,4,4,5,2,6,5,5,5,4,2,2,1,3,1,2,3,2,3,1,2,1,2,2,5,1,3,3,2,2,2,2,2,4,2,5,3,2,2,4,5,3,4,2,4,4,5,2,4,2,5,4,3,4,3,4,4,2,4,3,3,3,3,2,2,3,3,3,5,2,4,2,4,3,4,2,5,4,3,4,4,4,3,4,4,3,2,4,3,4
Tsinghua,1992,1,1,2,6,1.76,57,3,2,1,3,1,0.5,1,2,36.4,36.5,36.45,30.58009338,114.273407,86,19,11:40:20,7,3,2,1,0,4,4,5,0,5,2,4,4,1,1,2,4,1,1,1,6,2,1,2,¸ßÖÐÍ¬Ñ§,´óÑ§Í¬Ñ§,Ç×ÆÝ,NA,NA,2,5,3,NA,NA,4,4,3,4,4,4,2,2,2,4,4,4,2,3,2,2,2,2,2,4,2,2,4,2,4,3,2,2,3,2,4,3,2,2,3,2,4,2,4,4,4,2,2,2,2,2,4,4,5,3,5,6,2,5,3,5,4,3,5,5,3,2,2,6,2,2,2,5,2,2,5,4,3,2,2,3,5,3,5,3,5,3,3,4,4,3,4,4,4,4,3,4,5,2,5,6,6,6,5,2,2,2,3,2,2,3,2,4,3,3,2,2,2,2,2,4,3,4,1,2,2,3,2,5,4,4,1,2,4,5,2,5,3,2,4,5,3,4,3,4,4,4,2,4,4,2,2,4,2,3,3,2,2,3,2,4,4,4,3,2,2,2,2,4,4,2,4,4,2,2,2,3,2,2,2,2,3,2,2
Poland,1992,2,1,1,7,1.6,58,3,1,4,1,2,NA,1,2,36.4,36.5,36.45,52.25,21,55,-3,10:51:27,9,1,1,1,NA,4,4,4,2,5,5,2,2,1,NA,2,6,6,1,8,2,1,NA,1,NA,NA,NA,NA,NA,NA,NA,NA,NA,NA,4,5,3,4,4,3,2,3,3,2,4,2,2,3,4,4,4,3,4,4,3,3,3,4,4,5,4,4,4,4,3,2,2,2,1,2,4,4,4,4,4,2,1,3,4,2,4,3,1,1,1,2,4,3,1,2,1,5,1,4,4,1,2,1,1,1,1,3,1,1,1,1,2,2,2,2,3,1,1,6,3,1,1,5,5,5,5,5,2,2,4,3,5,6,6,6,6,6,6,2,4,2,4,2,3,4,2,1,3,4,2,4,1,4,3,4,6,6,4,4,3,4,1,2,1,5,4,4,2,2,4,2,1,2,1,2,4,1,3,5,2,4,4,5,4,2,2,5,3,2,5,4,1,1,2,2,2,2,2,2,2,2,2,4,2,1,1,1,5,5,3,2,2,5,4,2,3,4,1
VCU,1992,2,1,2,7,1.46,51.81818182,2,2,2.32,0,2,NA,1,2,36.61111111,36.33333333,36.47222222,37.55380249,-77.46029663,81,14.44444444,12:07:42,5,1,2,1,NA,4,4,5,NA,7,4,6,4,2,1,2,5,3,1,5,1,1,NA,1,NA,NA,NA,NA,NA,NA,NA,NA,NA,NA,3,3,3,5,5,4,1,4,2,1,3,1,5,4,4,5,2,3,2,3,2,2,3,4,5,3,3,2,5,3,4,4,3,4,5,3,4,3,4,5,3,2,4,2,5,1,4,4,4,4,4,4,6,4,4,4,4,6,4,4,4,4,4,7,4,4,4,4,4,5,4,5,4,4,2,4,4,4,6,4,4,4,4,5,5,3,4,4,4,3,4,3,2,5,6,5,4,4,5,2,1,2,1,1,2,3,1,2,3,1,1,2,3,2,2,4,2,5,1,2,4,2,1,5,4,4,2,4,3,4,5,4,2,1,4,5,5,4,5,5,2,3,2,3,4,4,5,3,5,2,3,5,2,1,2,3,3,4,4,2,1,4,3,4,3,2,2,2,3,3,4,3,4,4,4,3,2,2,2
VCU,1992,2,1,1,7,1.6002,67.27272727,4,1,6,0,2,NA,1,2,36.5,36.5,36.5,37.55220032,-77.45819855,94,13.33333333,10:09:20,5,1,2,1,NA,4,4,5,NA,2,1,8,8,1,NA,2,4,3,1,2,2,1,NA,2,School club (t1d rams),NA,NA,NA,NA,1,NA,NA,NA,NA,2,1,2,5,5,3,1,1,1,3,3,4,5,1,3,3,2,1,2,2,2,3,3,2,5,3,2,2,5,2,5,1,1,4,5,4,1,4,1,2,1,2,3,1,4,1,2,1,1,1,1,5,1,1,5,1,1,2,1,1,1,1,7,1,1,2,2,2,2,2,2,4,1,1,5,4,3,2,5,3,2,1,4,4,3,3,4,4,3,4,3,3,3,5,4,2,2,2,2,1,1,1,1,1,1,1,1,1,1,1,2,2,1,3,2,3,2,3,2,3,2,2,1,2,3,4,1,2,3,2,5,5,1,4,3,2,2,1,4,3,3,3,3,4,5,4,3,3,2,5,4,2,1,3,3,4,4,4,4,3,2,4,2,4,2,3,2,2,4,3,3,3,1,3,4,3,3,3,4
Poland,1992,2,1,1,5,1.7,53,4,2,5,3,2,NA,1,2,36.5,36.5,36.5,50.08329773,19.91670227,52,7,10:28:01,9,1,2,1,NA,4,4,4,2,4,2,5,5,2,1,2,8,2,1,1,1,1,NA,1,NA,NA,NA,NA,NA,NA,NA,NA,NA,NA,3,4,3,4,2,4,1,2,2,5,4,2,4,4,4,4,4,3,4,3,2,2,3,3,3,3,3,2,4,2,4,4,2,5,2,5,5,4,4,4,3,1,2,1,1,2,4,2,2,1,3,4,6,1,2,2,3,7,2,3,1,2,5,4,1,4,5,4,2,5,4,2,3,2,2,1,7,5,4,6,2,1,2,4,5,5,5,4,4,2,4,4,7,4,3,3,4,5,4,3,3,4,4,2,1,4,2,1,2,1,3,2,2,3,2,4,4,4,2,1,3,3,4,3,4,4,2,1,1,3,2,4,4,4,4,4,2,2,1,4,3,3,4,5,3,4,5,4,3,3,3,3,2,2,1,1,2,4,2,1,2,2,2,4,4,3,4,3,4,3,5,4,3,4,4,4,2,2,3
Tsinghua,1992,1,1,1,5,1.75,75,4,2,6,0,2,0,1,2,36.3,36.7,36.5,39.92889404,116.3883057,51,7,10:30:17,7,3,2,1,0,4,4,5,0,4,1,8,4,1,1,2,4,1,1,1,1,2,1,2,NA,NA,NA,NA,NA,NA,NA,NA,NA,NA,3,2,4,4,3,5,1,4,1,3,3,2,5,3,3,4,2,2,2,2,2,2,2,3,5,2,3,4,4,2,4,4,4,4,4,5,2,4,2,5,2,3,5,4,4,4,2,6,3,2,2,6,3,6,4,6,2,6,2,2,1,6,6,5,2,2,5,1,1,1,1,2,1,1,1,1,2,1,1,1,1,2,3,4,4,4,4,4,3,2,3,4,3,2,4,5,5,4,4,1,2,1,3,1,1,2,2,1,1,4,4,4,3,5,2,2,2,2,2,2,1,1,2,4,5,5,3,1,1,1,1,3,1,1,4,2,2,2,1,3,1,1,4,5,3,2,1,4,3,2,5,4,2,2,2,5,4,5,5,5,3,4,5,2,4,1,1,2,1,1,1,5,1,5,1,5,4,2,1
SMU,1992,1,3,1,6,1.7,67,4,2,0,0,2,NA,1,2,36.6,36.4,36.5,1.293106079,103.8558044,79,26,11:05:43,5,1,2,1,NA,4,4,5,NA,2,2,4,1,1,NA,2,8,1,NA,NA,1,2,4,2,Peer Helpers,Recreation Gaming Club,NA,NA,NA,6,3,NA,NA,NA,2,2,1,1,2,2,1,1,2,2,4,2,5,4,5,3,2,1,2,2,4,2,1,5,5,1,5,4,4,5,4,4,5,4,4,5,2,5,5,5,4,5,5,5,5,2,5,6,7,7,7,7,7,5,6,7,1,1,7,6,7,7,6,7,4,7,6,7,2,7,6,6,2,2,6,1,6,2,6,2,6,1,5,2,1,4,1,1,1,2,1,1,6,7,7,7,6,5,5,2,5,1,4,2,4,2,4,4,2,4,1,4,1,3,1,1,2,2,1,1,1,1,2,2,5,1,1,2,4,4,2,5,5,5,4,4,2,5,3,2,4,5,1,4,5,5,5,5,1,5,5,5,2,4,2,2,2,4,4,5,5,5,5,2,4,1,1,2,5,2,5,5,5,5,4,4,4,5,4
Kassel,1992,2,1,2,3,1.61,57,3,2,0,0,2,NA,1,2,36.5,36.6,36.55,50.1499939,8.533294678,99,-2,11:10:17,1,1,3,1,NA,4,4,5,NA,3,2,6,4,1,NA,1,NA,3,1,8,2,1,NA,1,NA,NA,NA,NA,NA,NA,NA,NA,NA,NA,2,3,5,4,3,3,3,2,4,5,4,2,2,3,3,2,2,3,2,3,3,2,2,3,3,2,3,4,3,1,4,1,1,4,3,4,4,4,4,3,4,1,1,1,3,1,4,4,4,3,3,5,5,4,3,2,1,4,4,3,2,2,4,3,2,2,1,5,1,5,3,6,1,1,1,2,2,2,1,6,5,1,1,5,5,5,5,5,5,4,5,5,4,5,5,4,6,4,5,2,1,1,2,2,2,2,1,2,2,1,4,4,2,3,2,4,4,6,4,4,4,3,2,2,1,4,4,3,3,4,3,1,2,2,3,2,2,2,4,2,3,4,2,4,4,4,3,3,3,3,3,3,2,2,2,1,1,4,4,2,2,2,2,3,4,3,2,3,4,4,4,3,2,4,3,2,4,2,2
METU,1992,2,1,1,7,1.65,57,2,1,0,0,2,NA,1,2,36.4,36.7,36.55,39.91169739,32.84030151,66,5,11:04:04,3,2,1,1,NA,4,4,4,4,2,2,1,2,1,NA,2,5,1,NA,NA,1,2,4,2,odt¨¹ tenis toplulu?u,odt¨¹ tiyatro,NA,NA,NA,2,10,NA,NA,NA,3,5,5,5,3,5,5,4,2,4,5,4,5,2,3,5,1,3,1,1,3,4,2,2,3,1,2,4,5,4,5,5,3,4,1,5,4,4,4,4,4,4,4,4,4,4,4,7,1,1,3,4,7,2,1,4,1,4,2,1,7,1,1,1,1,7,1,1,5,2,1,2,6,7,1,1,1,1,4,5,7,1,1,5,4,4,5,5,5,5,5,4,5,4,4,4,7,6,6,1,1,1,1,3,1,3,1,1,1,2,2,1,2,2,2,5,6,5,2,6,2,2,1,1,1,5,4,5,3,5,1,3,4,1,1,2,2,1,5,4,3,4,4,1,5,5,5,5,5,5,5,5,1,1,1,1,3,4,5,2,2,3,3,2,2,5,1,5,1,5,5,5,1,4,4,3,2,1,5
SMU,1992,2,1,1,4,1.57,50,4,2,0,0,1,3,1,2,36.38888889,36.72222222,36.55555556,1.293106079,103.8558044,75,26,10:59:47,5,1,2,1,NA,4,4,5,NA,3,1,7,4,1,NA,2,8,1,NA,NA,2,1,NA,1,NA,NA,NA,NA,NA,NA,NA,NA,NA,NA,2,2,2,3,1,2,2,1,2,3,3,2,4,3,3,4,3,2,1,3,3,3,3,3,4,3,3,3,5,1,4,2,5,2,4,3,2,2,2,2,2,2,2,2,2,2,2,2,2,2,2,4,2,2,2,2,2,1,2,2,2,4,2,2,4,5,4,6,2,5,6,6,2,2,6,3,6,2,2,6,6,5,3,5,4,5,5,5,5,4,5,5,3,5,5,5,6,4,4,2,2,1,2,2,2,2,2,2,2,1,2,1,2,3,1,4,5,7,5,5,2,5,2,4,4,2,1,4,2,2,4,5,4,2,4,5,5,4,1,2,2,2,5,4,3,3,3,4,3,3,4,3,3,4,4,2,1,4,2,3,2,4,2,5,2,2,2,3,4,3,2,3,3,5,4,3,3,1,2
Bamberg,1992,1,1,1,6,1.75,73,2,2,0,0,2,NA,1,2,36.54,36.64,36.59,49.90449524,12.18429565,54,3,11:45:25,1,1,2,1,NA,4,4,4,1,3,3,8,6,2,1,2,6,3,1,6,4,1,NA,1,NA,NA,NA,NA,NA,NA,NA,NA,NA,NA,4,3,5,5,3,2,3,2,5,2,3,2,5,2,2,4,3,2,3,2,4,3,3,5,5,4,3,1,1,1,4,1,1,1,1,2,4,3,2,4,2,1,1,1,1,1,2,2,2,2,1,4,1,2,6,2,2,6,2,4,2,6,1,2,2,5,2,4,2,5,5,2,2,2,2,4,2,2,2,7,6,3,2,5,4,5,5,5,4,2,4,4,3,6,6,6,4,4,4,4,4,3,4,2,4,3,4,3,2,1,1,2,2,4,1,4,3,4,2,2,2,2,3,2,2,4,4,2,3,2,2,2,1,1,1,3,4,2,4,1,3,4,2,4,4,4,4,3,3,2,4,3,2,2,2,1,1,4,2,4,1,2,3,4,3,4,2,3,2,5,3,4,3,5,3,4,3,2,3
Serbia,1992,1,1,2,1,1.68,65,3,2,0,0,1,20,1,2,36.6,36.6,36.6,44.81860352,20.46809387,56,6,11:15:58,6,1,2,1,NA,2,2,5,NA,2,1,5,5,1,NA,2,8,1,NA,NA,1,1,NA,1,NA,NA,NA,NA,NA,NA,NA,NA,NA,NA,3,3,4,3,4,4,2,1,4,2,2,3,4,4,3,3,3,2,2,3,3,2,3,3,3,3,2,3,3,1,2,2,1,2,1,3,1,3,1,1,1,1,1,1,1,1,1,4,3,3,5,4,3,2,4,4,2,5,4,5,5,2,4,5,3,2,3,8,NA,3,5,2,3,NA,3,NA,3,3,3,6,6,NA,4,4,3,4,5,4,4,2,3,4,3,4,3,5,5,4,3,4,3,1,4,4,1,4,4,3,2,1,2,2,2,3,2,3,2,1,1,3,1,1,1,2,3,3,1,4,1,2,4,4,2,4,2,2,4,3,4,4,4,4,3,2,4,3,2,3,3,2,2,4,2,2,2,4,1,4,2,4,3,2,3,4,4,2,2,4,3,2,2,4,3,4,2,2,4,3,1
Kassel,1992,2,1,1,7,1.72,56,4,2,27,0,2,NA,1,2,36.6,36.6,36.6,50.11669922,8.683303833,99,-2,09:49:34,1,1,2,1,NA,4,4,4,1,8,3,5,5,1,NA,2,6,1,NA,NA,1,1,NA,1,NA,NA,NA,NA,NA,NA,NA,NA,NA,NA,4,2,3,2,3,4,2,2,2,4,3,4,2,3,3,4,2,2,3,2,3,3,3,3,4,2,3,3,4,1,4,1,1,2,2,4,2,4,2,4,2,1,2,1,2,2,2,4,2,2,5,4,5,2,2,3,2,3,3,5,5,2,5,5,1,2,2,4,2,2,1,2,2,2,1,1,1,1,1,6,6,1,2,5,4,4,5,4,3,4,5,5,7,5,5,5,4,4,5,2,2,1,2,2,2,2,2,2,2,2,2,2,2,2,3,4,6,6,4,6,5,6,2,2,2,4,3,4,2,3,4,4,3,2,2,4,3,2,4,2,2,3,4,4,3,5,2,4,3,2,3,3,1,3,2,2,3,3,1,2,2,2,3,4,4,2,2,3,4,3,3,2,4,2,4,3,3,4,1
Oslo,1992,1,2,2,6,1.8,73,3,2,0,0,2,NA,1,2,36.5,36.7,36.6,NA,NA,87,-1,10:39:22,4,1,2,1,NA,4,1,5,NA,2,1,3,3,1,NA,1,NA,1,NA,NA,2,1,NA,1,NA,NA,NA,NA,NA,NA,NA,NA,NA,NA,3,2,2,3,3,3,1,2,2,1,3,2,4,5,4,4,3,3,3,3,4,3,3,3,5,3,4,2,3,1,3,3,2,2,3,4,4,4,4,4,4,4,2,1,2,2,4,5,5,5,5,5,6,5,5,5,5,5,4,4,4,6,5,6,2,5,3,5,5,5,3,4,3,4,4,4,5,2,4,5,4,3,4,3,4,4,4,4,3,4,3,2,5,4,5,4,3,3,3,4,4,4,3,3,4,5,4,4,4,4,3,3,2,3,2,4,5,5,1,2,3,3,2,4,3,3,4,4,2,3,4,5,3,1,2,4,4,3,3,3,2,4,3,4,3,5,4,4,4,3,3,4,3,3,3,3,2,2,3,2,2,3,4,2,3,3,1,3,2,4,4,5,3,3,4,4,3,2,3
Poland,1992,2,1,1,7,1.63,51,4,2,40,5,2,NA,1,2,36.44,36.79,36.615,52.41670227,16.96670532,86,3,10:34:33,9,1,1,2,2,4,4,4,4,6,6,2,2,2,1,2,8,2,1,1,2,1,NA,1,NA,NA,NA,NA,NA,NA,NA,NA,NA,NA,4,4,3,4,4,4,2,3,2,4,3,4,3,2,2,3,4,4,4,3,3,4,4,2,5,5,1,5,4,2,4,3,2,3,2,4,4,2,3,2,3,2,2,2,2,3,4,1,1,1,5,4,1,1,2,1,1,7,2,1,1,1,6,1,1,2,1,3,1,1,1,1,2,1,2,2,2,3,1,5,4,2,2,5,5,5,5,5,5,5,5,5,2,2,2,2,1,2,2,1,2,1,3,2,2,4,2,1,1,2,3,1,1,3,2,5,6,4,2,2,2,2,2,2,2,5,4,2,1,2,4,1,1,2,2,4,2,3,4,1,3,3,1,2,3,5,3,5,5,2,5,4,1,1,1,1,4,4,2,1,2,2,2,2,2,2,2,3,4,4,4,2,2,2,2,1,2,2,2
Serbia,1992,2,2,2,5,1.68,62,2,2,2,0,2,NA,1,2,36.5,36.8,36.65,44.81860352,20.46809387,71,8,10:19:07,6,1,2,1,NA,4,4,5,NA,3,2,6,4,1,NA,2,8,1,NA,NA,1,1,NA,2,ZKK Bor,NA,NA,NA,NA,5,NA,NA,NA,NA,4,3,3,3,4,3,2,3,5,4,2,2,3,3,2,3,3,3,3,3,3,4,4,2,4,3,3,1,1,1,2,2,1,1,1,1,1,1,3,2,1,1,2,1,1,2,2,2,3,3,3,4,1,2,4,4,4,3,3,4,3,3,3,4,3,5,4,8,4,5,4,3,4,4,6,3,5,5,5,5,6,4,4,4,4,4,3,4,4,3,4,2,4,4,3,3,5,4,4,2,4,1,4,1,1,2,4,3,2,1,2,4,3,4,2,3,2,3,2,2,2,2,4,2,3,5,4,1,1,2,3,3,3,2,2,2,3,3,5,2,3,3,4,3,3,3,3,2,1,3,2,2,3,2,3,2,4,3,2,2,2,2,2,2,2,1,3,5,3,1,1,5,5,4,2,5,3,4,4
Kassel,1992,1,4,2,7,1.73,60,2,1,20,0,2,NA,1,2,36.8,36.5,36.65,51.30560303,9.465194702,82,1,11:06:08,1,1,2,1,NA,4,1,5,NA,2,1,6,1,1,NA,2,3,1,NA,NA,1,1,NA,1,NA,NA,NA,NA,NA,NA,NA,NA,NA,NA,3,3,3,4,3,4,5,2,2,3,3,4,3,3,3,3,2,2,2,2,3,2,3,3,3,2,3,2,2,1,2,1,1,1,2,2,1,1,1,1,1,1,1,1,1,1,1,4,4,4,4,4,4,4,4,4,4,4,4,4,4,4,4,4,4,4,4,4,4,4,4,4,4,4,4,4,4,4,4,4,4,4,4,3,3,4,4,4,4,2,3,2,5,1,2,1,3,3,4,2,2,2,4,2,2,2,2,3,2,2,4,4,2,4,4,5,8,5,6,2,6,6,3,2,2,5,5,2,4,4,2,2,2,3,2,3,4,1,2,3,2,4,4,4,4,5,4,3,2,4,3,2,2,2,2,2,2,4,2,3,3,2,2,4,2,2,3,4,4,4,4,4,2,3,3,4,3,4,4
Tsinghua,1992,2,1,1,7,1.72,62,3,2,0,0,2,0,1,2,36.6,36.7,36.65,39.92889404,116.3883057,21,11,09:41:21,7,3,2,1,0,4,4,5,0,3,1,4,3,1,1,2,8,1,1,1,2,2,1,2,NA,NA,NA,NA,NA,NA,NA,NA,NA,NA,4,5,5,4,5,5,2,5,2,4,4,4,3,2,3,3,3,3,1,2,3,4,3,3,5,1,2,2,3,1,3,4,2,4,2,2,4,4,4,4,1,1,1,1,2,1,4,4,1,1,1,4,1,1,4,1,1,1,1,1,1,1,6,5,1,1,1,1,2,1,2,3,2,1,1,1,1,1,4,1,1,1,1,5,5,5,5,5,5,5,5,5,3,1,3,4,4,3,3,1,1,2,2,3,1,3,2,1,2,1,3,3,1,1,2,3,3,4,2,2,1,2,1,3,4,5,1,5,1,1,4,5,3,1,1,3,2,1,5,5,2,1,2,5,3,2,3,4,4,2,4,4,1,1,1,3,5,5,5,2,2,4,3,4,4,2,1,5,2,1,1,1,1,3,5,2,3,2,1
Poland,1992,2,1,1,7,1.73,62,4,2,30,14,2,NA,1,2,36.6,36.7,36.65,51.05000305,21.06669617,67,NA,11:26:17,9,1,1,1,NA,4,2,4,1,3,2,4,4,2,1,2,5,2,1,1,1,1,NA,1,NA,NA,NA,NA,NA,NA,NA,NA,NA,NA,2,2,1,4,3,2,2,1,2,2,3,4,2,3,4,3,4,3,3,2,4,3,3,4,4,3,3,4,3,3,5,2,3,4,3,3,4,4,4,4,3,3,4,4,2,4,4,2,2,1,2,2,2,1,2,1,1,6,3,2,2,1,6,5,1,5,2,4,2,5,1,4,2,2,4,2,2,3,3,6,6,2,1,5,4,5,5,5,3,3,4,4,3,2,2,4,3,5,5,4,4,1,3,2,1,3,2,4,2,3,3,3,1,3,2,3,3,3,2,2,2,3,1,3,5,4,4,3,2,2,3,4,3,1,2,4,4,2,3,2,2,4,2,3,4,5,2,5,5,3,3,3,1,1,1,2,4,4,3,4,4,2,3,2,3,2,1,2,4,4,4,3,4,4,4,3,3,3,4
VCU,1992,2,1,2,7,1.6764,109.0909091,3,1,0,0,2,NA,1,2,36.72222222,36.66666667,36.69444444,37.55380249,-77.46029663,68,8.888888889,09:38:14,5,1,2,1,NA,4,4,5,NA,2,2,1,1,2,1,2,3,1,NA,NA,1,1,NA,2,Student Today Alumni Tomorrow,NA,NA,NA,NA,2,NA,NA,NA,NA,2,2,5,3,3,3,2,1,2,4,5,3,3,4,3,4,2,2,3,3,3,3,4,4,5,2,4,4,4,1,4,4,4,4,4,4,2,4,2,4,2,2,4,4,4,2,2,7,7,7,7,7,7,7,7,7,7,1,7,7,7,7,7,7,7,7,1,7,7,1,7,1,7,7,5,7,1,1,7,7,7,7,7,5,5,4,4,2,4,1,1,1,2,1,1,1,1,1,1,4,4,3,4,4,3,4,4,2,4,4,3,3,2,4,2,4,6,3,3,3,3,1,4,4,4,4,3,1,4,4,4,4,4,3,3,4,4,3,4,4,2,3,4,3,3,4,4,3,3,4,3,2,3,2,3,2,1,4,4,2,4,4,3,4,2,1,3,3,5,2,2,2,2,4,2,3,2,4,4
Bamberg,1992,2,1,1,7,1.7,63,2,2,0,0,2,NA,1,2,36.6,36.8,36.7,55.69999695,13.18330383,87,1,10:45:53,1,1,2,1,NA,4,2,4,1,2,1,4,1,1,NA,1,NA,1,NA,NA,2,1,NA,1,NA,NA,NA,NA,NA,NA,NA,NA,NA,NA,3,2,4,5,2,3,3,3,4,4,5,3,4,2,2,2,3,2,2,2,1,2,2,2,3,2,1,1,1,1,1,1,1,1,1,1,1,1,1,1,1,1,1,1,1,1,1,2,2,1,4,4,3,1,3,5,1,7,1,1,1,2,1,2,1,1,1,3,1,1,1,1,2,1,1,1,1,2,1,2,2,1,2,5,5,4,5,5,4,2,5,4,3,2,2,1,3,3,3,3,3,1,4,1,2,2,2,2,4,1,2,3,3,3,3,3,3,4,2,3,1,2,2,2,1,3,1,2,2,1,3,4,3,2,3,3,2,2,2,3,2,4,3,4,3,5,2,3,3,2,3,2,1,1,2,1,2,3,3,1,2,3,3,3,2,3,3,2,4,4,4,2,2,1,3,3,2,2,1
Poland,1992,1,1,2,6,1.94,81,3,1,36,0,2,NA,1,2,36.7,36.7,36.7,52.23330688,21.01669312,58,-3,11:39:23,9,1,2,1,NA,4,2,4,1,4,1,2,2,1,NA,2,8,6,1,8,1,1,NA,2,studia,sport,praca,on-line,NA,10,6,10,5,NA,3,2,2,4,3,4,3,5,2,3,4,3,4,3,2,3,4,5,5,4,3,3,4,2,4,4,3,1,1,1,4,1,3,1,2,1,4,4,3,4,1,1,1,1,1,2,3,3,3,3,4,6,6,5,5,4,1,3,3,4,2,4,6,4,2,2,2,7,3,5,2,4,4,4,3,2,6,6,3,6,6,3,3,2,2,4,2,1,1,1,1,3,4,3,3,6,3,2,2,2,3,2,3,2,2,3,3,2,2,2,2,1,1,2,1,5,6,6,6,6,5,4,4,3,2,4,1,2,2,2,4,5,5,2,2,4,3,3,2,2,3,5,4,2,3,4,2,4,1,3,4,1,2,5,2,2,2,2,2,1,2,4,4,4,3,2,2,3,3,4,4,3,2,4,5,4,3,4,3
Kassel,1992,2,1,2,5,1.65,59,5,2,0,0,2,NA,1,2,36.74,36.73,36.735,51,9,52,7,10:02:01,1,1,2,1,NA,2,2,5,NA,4,3,8,5,2,2,2,8,3,1,2,4,1,NA,2,studentische Unternehmensberatung,NA,NA,NA,NA,6,NA,NA,NA,NA,4,3,1,4,1,2,3,4,1,2,3,1,4,4,5,4,3,2,4,4,4,3,2,5,5,3,4,2,4,4,4,4,4,1,2,4,4,5,5,5,5,3,2,2,4,1,4,7,6,5,5,6,4,5,7,6,1,7,2,7,6,7,2,2,5,6,3,7,3,5,5,2,3,2,6,3,5,3,5,7,7,3,6,5,5,4,5,5,5,4,5,5,4,5,5,4,6,4,5,2,4,1,4,2,4,2,1,2,2,2,2,2,4,2,2,5,7,5,5,7,6,5,1,1,2,4,4,4,5,5,2,2,2,1,3,4,2,2,2,4,4,5,3,5,4,4,5,3,4,3,4,5,1,1,1,1,4,4,4,1,1,4,4,2,4,3,2,4,5,1,5,5,1,5,5,5,4,1,4
Tsinghua,1992,2,1,1,7,1.6,52,3,2,2,0,2,0,1,2,36.6,36.9,36.75,39.92889404,116.3883057,51,7,09:38:28,7,3,2,1,0,4,4,4,1,8,2,7,3,1,1,2,8,3,1,3,3,2,1,2,NA,NA,NA,NA,NA,NA,NA,NA,NA,NA,3,4,4,5,4,3,1,4,3,4,3,4,4,1,4,3,2,3,2,2,2,2,2,4,4,2,2,3,2,2,4,2,2,2,3,4,4,4,4,3,2,2,2,2,4,2,4,6,2,2,2,6,2,3,4,3,2,2,2,2,2,2,3,5,2,3,2,4,2,2,2,2,2,2,2,2,3,2,2,2,4,3,3,4,4,4,4,4,5,5,4,5,4,3,4,5,6,6,5,2,2,1,2,2,2,3,2,3,2,2,2,2,2,3,2,4,1,6,4,4,4,4,3,4,4,4,1,2,2,2,2,4,4,3,3,4,4,2,4,4,2,3,4,4,3,4,4,4,4,3,4,4,2,2,2,4,4,4,4,2,2,4,4,4,3,4,2,4,4,4,4,4,2,4,4,3,4,2,4
Tsinghua,1992,1,1,1,7,1.74,80,3,2,1,0,2,0,1,2,36.7,36.8,36.75,39.92889404,116.3883057,51,7,09:39:27,7,3,2,1,0,4,2,5,0,3,2,5,2,1,1,2,8,1,1,1,4,2,1,2,NA,NA,NA,NA,NA,NA,NA,NA,NA,NA,3,3,3,3,5,4,1,3,3,3,4,2,4,2,3,2,2,2,2,3,2,2,3,2,4,2,3,4,3,2,2,2,2,3,4,3,4,4,4,4,3,2,4,2,3,2,4,6,2,2,3,6,4,2,5,4,2,2,2,4,2,2,2,3,2,6,2,2,2,2,2,2,2,2,2,2,2,2,2,2,2,2,2,5,5,4,5,5,5,3,5,5,2,3,3,4,5,4,4,2,2,3,2,2,2,3,2,2,2,2,2,2,2,1,4,4,4,6,2,3,3,3,3,3,3,4,1,2,2,3,2,4,3,2,2,4,4,2,4,2,2,2,2,4,4,2,2,4,4,3,4,4,4,4,2,3,3,3,4,2,2,4,2,4,4,3,2,4,2,2,2,4,2,3,4,4,3,2,3
VCU,1992,1,1,2,7,1.7018,109.0909091,1,2,2,8,2,NA,1,2,36.55555556,37,36.77777778,37.55380249,-77.46029663,94,13.33333333,11:25:06,5,1,2,1,NA,4,4,5,NA,4,2,5,3,2,1,2,8,1,NA,NA,1,1,NA,1,NA,NA,NA,NA,NA,NA,NA,NA,NA,NA,3,1,2,1,2,1,3,2,1,1,3,2,4,4,3,4,2,3,3,4,3,3,4,4,2,1,3,4,4,4,5,2,4,4,2,5,3,4,2,2,4,1,1,4,4,3,3,4,4,4,4,4,5,4,4,4,4,5,4,4,5,4,4,6,4,4,4,4,4,4,4,4,4,4,4,4,4,5,4,4,4,4,4,5,3,4,5,4,5,3,4,2,2,6,5,6,6,3,3,4,4,2,4,4,4,4,4,2,2,2,4,2,3,5,4,4,4,6,4,2,1,4,2,4,5,5,1,2,3,2,2,5,2,2,5,5,2,4,2,2,2,2,5,4,4,2,4,3,3,4,1,1,3,3,3,1,5,4,2,3,1,4,5,2,4,1,4,4,4,2,3,3,1,2,1,2,2,1,1
Serbia,1992,2,1,1,7,1.61,58.1,4,2,0,0,2,NA,1,2,36.8,36.8,36.8,44.81860352,20.46809387,50,8,10:04:44,6,1,2,1,NA,4,4,5,NA,7,6,8,7,1,NA,2,8,3,1,2,1,2,1,1,NA,NA,NA,NA,NA,NA,NA,NA,NA,NA,5,3,4,4,4,4,2,3,4,2,3,4,5,1,4,3,2,1,1,2,2,2,2,3,5,2,2,2,1,1,3,3,1,2,1,5,3,3,3,3,1,1,1,1,3,1,3,1,1,1,1,1,1,1,1,1,1,1,1,1,1,1,1,2,1,1,1,4,1,1,1,1,1,1,1,1,1,1,1,3,4,1,1,5,4,3,5,1,2,1,1,1,3,4,6,1,2,2,4,2,2,3,2,2,1,5,1,5,3,3,1,1,1,2,1,5,4,5,1,2,2,3,2,4,3,3,2,4,3,1,1,5,2,1,5,3,5,4,3,5,5,5,3,2,5,1,1,3,4,3,4,4,4,5,1,1,2,4,3,5,3,1,3,5,1,5,1,5,5,5,3,1,3,5,1,3,1,3,4
Serbia,1992,2,1,2,7,1.67,53,4,2,3,0,1,8,1,2,36.8,36.8,36.8,44.81860352,20.46809387,56,6,10:37:22,6,1,2,1,NA,4,4,5,NA,4,2,6,6,1,NA,2,8,1,NA,NA,1,1,NA,1,NA,NA,NA,NA,NA,NA,NA,NA,NA,NA,5,4,5,4,4,3,5,4,4,4,3,4,3,2,4,2,2,2,2,2,2,2,2,3,4,2,2,2,3,3,2,2,1,2,2,3,3,4,4,2,2,1,1,1,2,2,4,3,3,4,5,7,5,2,5,4,4,4,5,5,4,5,4,4,3,1,NA,7,1,3,2,2,3,3,3,3,4,3,1,7,7,NA,4,4,4,4,5,4,3,3,4,4,2,2,3,3,3,2,3,2,2,1,2,1,1,2,1,2,2,2,2,2,2,4,2,4,4,5,1,3,4,4,3,2,2,5,3,4,3,2,3,2,2,3,1,2,3,2,4,4,3,4,4,3,4,4,2,2,2,3,2,4,2,4,2,1,5,3,4,2,2,3,2,4,4,1,2,4,4,1,3,4,2,5,4,2,4,3,4
VCU,1992,2,1,1,7,1.6002,70.45454545,3,2,0,0,2,NA,1,2,36.88888889,36.88888889,36.88888889,37.55220032,-77.45819855,97,11.11111111,09:43:12,5,1,2,1,NA,4,2,4,2,1,NA,5,4,2,2,2,4,3,1,5,1,2,5,2,Camp Kesem,NA,NA,NA,NA,15,NA,NA,NA,NA,4,4,4,3,5,4,4,4,2,3,4,4,3,2,3,3,3,3,2,3,3,3,3,3,3,3,3,3,2,3,3,3,3,3,4,2,4,4,4,4,4,2,2,2,2,2,4,4,1,1,1,1,1,1,1,1,1,1,1,1,1,1,1,1,1,1,1,1,1,1,1,1,1,1,1,1,1,1,1,1,1,1,1,4,4,4,4,4,4,4,3,3,6,7,7,7,1,6,6,3,4,3,3,3,2,4,4,4,3,3,2,4,1,3,2,2,5,6,3,2,3,3,3,3,4,4,1,3,4,4,4,4,3,3,4,4,3,4,3,3,3,3,4,4,3,4,4,4,3,3,3,2,2,4,3,3,4,4,4,4,4,4,5,3,4,2,2,4,4,3,3,4,4,4,4,4,3,3,1
Southampton,1992,2,1,1,7,1.54,49,3,2,9,0,2,NA,1,2,36.8,37,36.9,54.96209717,-1.601699829,86,7,11:11:07,5,1,2,1,NA,4,4,5,NA,2,1,6,6,1,NA,1,NA,3,1,8,1,1,NA,1,NA,NA,NA,NA,NA,NA,NA,NA,NA,NA,3,3,4,3,3,2,4,1,4,3,3,3,4,3,2,4,3,4,3,3,3,3,2,3,2,2,4,3,4,3,3,3,2,2,2,4,4,4,4,4,2,1,3,2,1,4,3,5,4,4,4,3,5,5,5,4,5,3,4,4,4,4,5,7,3,3,3,4,2,4,3,3,3,4,3,3,3,3,3,3,4,3,4,4,4,4,3,4,4,3,4,5,4,4,5,4,4,5,5,4,3,1,4,3,3,2,2,2,3,4,2,2,2,3,4,4,3,7,3,3,3,2,2,4,2,5,5,4,2,2,4,2,2,3,2,2,4,2,4,3,2,3,3,4,4,5,4,4,3,3,2,2,2,2,2,2,3,3,3,1,2,4,3,4,3,4,2,3,3,4,4,5,2,2,4,5,3,2,2
VCU,1992,1,1,1,7,1.7526,70.45454545,4,2,0,0,2,NA,1,1,36.77777778,37.05555556,36.91666667,39.73919678,-104.9847031,91,14.44444444,10:56:37,5,1,2,1,NA,4,4,4,4,2,1,3,2,1,NA,2,5,3,1,3,1,1,NA,1,NA,NA,NA,NA,NA,NA,NA,NA,NA,NA,4,4,4,4,4,4,2,3,2,2,3,3,4,4,3,4,3,3,3,3,4,3,3,3,4,3,4,2,3,3,4,2,2,3,2,4,4,3,3,3,3,1,2,2,2,1,3,2,3,2,2,6,3,2,2,2,2,3,2,2,2,2,3,4,6,2,2,2,2,2,2,2,2,2,2,2,2,2,2,2,2,2,1,4,4,4,4,4,4,4,4,3,5,4,3,3,4,4,3,2,2,2,2,2,2,2,2,2,2,2,2,2,2,3,2,3,3,3,3,2,4,3,4,3,3,4,3,2,3,3,3,4,2,2,3,3,3,2,3,4,3,2,4,4,3,4,3,4,4,3,4,3,2,3,3,2,4,5,1,4,3,3,3,4,3,4,3,3,3,4,3,3,3,4,3,4,4,4,3
VCU,1992,2,1,1,1,1.8288,91.81818182,3,1,1,0,2,NA,1,2,36.77777778,37.05555556,36.91666667,40.21400452,-75.07299805,94,13.33333333,11:19:33,5,1,2,2,2,4,4,4,2,4,2,5,5,1,NA,2,2,3,8,8,1,1,NA,1,NA,NA,NA,NA,NA,NA,NA,NA,NA,NA,5,4,2,5,5,5,5,1,5,2,5,5,1,3,4,4,2,2,2,2,4,2,2,5,4,2,3,5,4,2,4,2,2,4,4,5,4,3,4,2,1,1,1,1,2,1,2,1,5,3,5,7,5,5,3,3,5,2,6,3,7,1,5,3,3,1,3,3,3,3,1,2,3,2,2,3,2,2,3,3,2,2,3,5,5,5,5,5,5,5,5,5,6,7,7,7,7,4,7,1,1,1,1,1,1,5,1,1,1,1,1,5,1,3,1,3,4,4,2,3,3,3,5,1,1,5,1,5,1,1,5,5,2,2,1,2,2,2,4,4,1,4,1,3,4,5,3,2,4,4,4,5,3,2,3,1,5,3,5,1,1,5,5,1,5,1,1,5,5,1,3,1,5,5,3,2,4,1,5
Poland,1992,2,1,1,7,1.58,53,3,1,6,1,2,NA,1,2,36.95,36.92,36.935,54.5,18.55000305,81,-3,11:37:14,9,1,1,1,NA,4,2,3,1,3,2,2,2,2,1,2,4,2,1,1,1,2,2,1,NA,NA,NA,NA,NA,NA,NA,NA,NA,NA,5,5,5,4,5,5,4,5,4,4,5,5,3,5,5,5,3,3,3,3,5,3,4,4,5,4,5,3,2,3,3,2,2,3,1,2,5,4,4,4,4,1,2,1,3,2,4,4,3,5,5,4,4,2,4,3,2,4,4,2,1,2,7,6,3,5,5,7,3,5,5,2,5,5,6,4,6,6,2,7,7,3,6,5,4,5,4,4,4,4,4,4,7,6,7,7,7,7,7,3,4,4,4,4,4,4,4,3,3,2,2,4,3,3,3,4,7,7,6,7,6,6,2,4,4,4,3,2,2,2,4,4,2,2,3,4,4,3,3,3,1,3,5,5,4,3,2,3,4,3,2,3,1,1,2,2,4,4,4,3,2,4,4,4,4,1,1,3,4,3,2,3,3,4,3,4,4,3,4
Tsinghua,1992,2,1,1,7,1.58,50,2,2,0,0,2,0,1,2,36.9,37,36.95,NA,NA,87,17,10:12:39,7,3,2,1,0,4,4,5,0,5,3,3,1,1,1,2,2,1,1,1,1,2,8,1,ÑÐ»á,°à¼¯Ìå,NA,NA,NA,5,18,NA,NA,NA,2,4,4,4,5,2,2,4,4,3,4,4,4,3,3,4,3,4,3,3,2,3,5,2,4,2,3,4,4,3,4,4,4,4,4,4,4,4,4,4,4,3,2,3,2,3,3,6,2,5,5,6,5,2,5,3,2,3,2,2,5,5,2,5,2,6,2,3,2,2,5,3,3,2,2,2,6,2,5,2,3,3,2,4,4,4,3,4,4,4,4,4,2,2,2,4,4,4,5,4,2,2,3,2,4,3,3,4,2,2,2,4,2,2,2,2,2,4,8,4,1,3,2,2,3,5,4,4,3,2,4,3,2,2,2,2,4,2,4,4,2,4,4,2,4,2,2,4,4,3,4,4,2,4,2,2,2,4,3,2,2,4,2,3,3,2,2,4,2,2,4,4,2,2,4,4,4,4,3
Oslo,1992,2,1,1,7,1.68,70,4,2,5,3,2,NA,1,2,36.9,37.2,37.05,NA,NA,74,-14,10:33:36,4,1,1,1,NA,4,4,4,2,7,4,8,8,1,NA,2,8,3,1,6,1,1,NA,1,NA,NA,NA,NA,NA,NA,NA,NA,NA,NA,2,2,4,5,4,3,2,3,2,4,4,4,4,3,2,3,3,2,3,3,4,3,2,2,4,3,2,2,4,1,1,1,2,2,4,2,4,2,3,4,4,1,2,1,2,2,2,2,3,3,3,4,3,2,3,2,2,2,2,2,2,2,5,7,1,2,2,3,2,2,2,2,2,1,2,2,2,2,1,2,3,1,3,3,4,4,4,2,2,2,3,4,5,5,5,6,6,5,4,2,2,1,2,1,2,2,2,3,2,2,2,2,1,2,1,4,4,6,2,2,3,2,2,2,4,4,4,3,4,2,2,3,2,1,2,4,4,2,3,3,4,3,3,2,4,4,4,5,4,5,5,4,1,3,1,2,2,2,2,3,2,2,2,4,3,2,2,4,3,4,2,4,2,2,4,3,2,2,1
VCU,1992,2,1,1,7,1.5494,47.72727273,3,2,4,0,2,NA,1,2,37.05555556,37.05555556,37.05555556,37.61340332,-77.25640106,45,6.666666667,09:35:32,5,1,1,1,NA,1,NA,4,4,4,4,6,6,1,NA,2,3,3,1,6,1,1,NA,1,NA,NA,NA,NA,NA,NA,NA,NA,NA,NA,3,5,5,3,3,3,5,4,2,1,4,3,3,3,4,5,3,3,3,3,4,4,3,4,3,3,4,5,5,5,3,3,3,5,5,4,5,5,5,5,5,2,3,5,3,5,5,5,5,5,4,3,5,6,4,3,5,5,1,4,2,2,5,3,3,3,2,2,2,2,2,1,3,2,1,1,1,2,1,1,1,2,3,3,3,4,3,4,2,2,1,1,5,5,5,5,5,4,4,4,4,2,2,4,4,4,4,4,3,4,2,2,2,4,2,4,6,4,4,4,4,4,2,4,2,5,4,2,4,5,5,4,1,2,4,4,4,2,5,4,4,4,4,3,3,4,4,4,4,4,5,3,1,1,3,4,5,4,4,4,2,4,5,3,4,2,3,4,5,5,3,3,4,4,3,3,4,2,1
Kassel,1992,2,1,2,7,1.75,106,3,1,0,0,1,1,1,2,37.13,36.99,37.06,51,9,82,2,09:43:39,1,1,2,1,NA,4,4,5,NA,4,2,8,4,1,NA,2,8,3,1,5,1,1,NA,1,NA,NA,NA,NA,NA,NA,NA,NA,NA,NA,3,3,2,2,1,3,2,2,3,2,3,2,2,3,3,4,3,3,4,3,4,4,3,3,4,3,2,2,2,1,1,1,1,1,3,2,4,3,3,3,1,1,1,2,1,3,2,6,5,6,6,6,5,3,5,6,5,6,6,3,3,3,3,6,3,4,4,3,2,3,1,2,4,4,5,4,5,5,2,5,4,2,4,4,4,4,3,2,2,2,3,2,4,6,6,5,5,5,5,2,3,1,3,2,2,3,2,2,1,2,3,2,2,4,2,4,7,6,5,5,4,4,2,2,3,3,2,2,2,2,4,4,4,3,3,5,5,2,3,4,4,5,4,4,3,5,5,4,3,3,4,3,2,2,3,5,2,4,3,3,4,2,3,2,3,4,2,4,4,3,5,3,3,3,2,2,2,1,4
Oxford,1992,2,1,2,7,1.73,60,3,2,0,0,2,NA,1,1,37.1,37.2,37.15,51.75,-1.25,74,2.777777778,08:30:01,5,1,2,1,NA,4,2,5,NA,2,1,5,3,1,NA,2,4,1,NA,NA,2,1,NA,1,NA,NA,NA,NA,NA,NA,NA,NA,NA,NA,2,2,2,4,2,3,1,1,3,1,2,3,4,3,3,3,3,3,3,3,4,3,3,4,3,3,3,2,4,3,4,4,1,3,2,4,2,3,3,3,2,2,3,4,2,3,3,2,4,3,2,3,3,2,3,3,4,3,2,3,2,2,2,4,1,5,4,5,3,4,3,4,5,5,2,2,5,2,4,5,4,3,3,4,4,4,4,4,3,2,3,3,5,7,7,6,6,5,6,2,3,1,3,2,1,2,3,2,2,2,4,3,2,2,2,3,3,4,2,2,3,3,3,5,5,3,1,2,5,3,3,5,5,1,5,4,2,3,4,4,3,4,4,3,4,3,3,4,3,3,3,3,2,2,3,1,3,3,2,4,4,2,3,3,2,2,3,3,3,4,4,2,3,3,4,3,2,2,2
Poland,1992,2,1,1,7,1.7,82,2,2,12,1,2,NA,1,2,38,38,38,52.25,21,70,1,10:59:13,9,1,1,1,NA,2,2,4,1,6,3,3,3,2,1,2,5,2,1,1,2,1,NA,2,uniwersytecka,NA,NA,NA,NA,5,NA,NA,NA,NA,2,2,3,3,4,4,2,3,3,4,4,3,4,2,3,4,4,4,4,3,3,3,3,4,5,4,3,3,3,2,3,2,2,3,2,4,4,4,3,2,3,2,3,4,2,2,4,1,1,1,1,4,3,1,2,2,1,7,2,2,2,1,5,3,1,2,2,4,2,1,1,1,2,2,1,2,2,2,2,6,4,2,2,4,4,4,4,4,3,2,3,3,5,4,4,5,4,5,6,2,3,4,2,2,3,4,3,2,3,2,3,2,1,3,2,5,5,6,6,6,6,6,5,5,3,3,1,5,1,3,3,5,3,1,4,4,2,4,3,2,3,4,4,4,4,5,4,5,2,3,4,4,2,3,1,2,3,3,3,2,2,4,4,4,3,4,1,4,3,4,2,4,3,5,3,4,3,2,3
Oxford,1993,2,1,1,7,1.6002,55,2,2,3,0,2,NA,1,2,34.4,35.9,35.15,51.75,-1.25,89,-1.666666667,08:19:59,5,1,2,1,NA,4,4,2,1,8,5,5,4,1,NA,2,5,1,NA,NA,1,1,NA,2,Sport,Social,Coffee Club,NA,NA,3,4,2,NA,NA,1,4,2,2,2,1,1,3,4,3,3,1,1,4,2,4,4,4,3,4,4,3,4,3,3,4,3,2,3,2,3,2,2,3,2,3,2,2,4,2,2,2,2,2,2,2,2,4,4,4,4,4,4,4,4,4,4,3,4,4,4,4,4,4,4,5,4,4,4,4,4,4,4,4,4,4,4,4,5,4,4,4,4,4,4,4,4,4,4,4,4,4,7,4,4,4,4,4,5,4,4,4,4,4,4,4,4,4,4,4,2,4,2,4,2,4,5,2,2,2,2,2,5,3,5,5,5,5,5,3,5,1,1,1,1,1,5,1,5,5,4,4,5,5,4,5,5,5,3,4,3,3,3,3,3,5,3,4,3,5,5,5,5,5,3,3,3,3,4,3,4,3,3,3,3,3,3,3,3
METU,1993,1,1,2,2,1.8,65,3,2,3,0,1,3,1,2,34.6,36,35.3,39.91169739,32.84030151,64,2,09:32:38,3,2,2,1,NA,4,4,5,NA,3,1,5,5,1,NA,2,4,1,NA,NA,1,1,NA,1,NA,NA,NA,NA,NA,NA,NA,NA,NA,NA,2,3,1,5,2,3,2,2,1,1,2,3,3,3,3,3,3,3,3,3,3,3,4,3,3,3,3,2,2,2,2,4,2,2,2,4,2,2,2,2,2,2,2,2,2,2,4,4,4,4,4,4,4,4,4,4,4,4,4,4,4,4,4,4,4,4,4,4,4,4,3,4,4,4,4,4,4,4,4,4,4,4,4,4,4,4,4,4,4,4,4,4,3,2,4,3,2,3,3,3,3,3,3,3,3,3,3,3,3,3,3,3,3,3,3,1,3,2,2,1,2,2,2,2,2,4,3,3,3,3,3,4,2,2,2,4,4,2,2,4,3,4,4,2,4,4,4,4,4,4,4,4,2,2,2,3,4,4,2,4,2,4,2,4,4,3,2,4,3,4,4,4,2,4,3,4,4,3,2
Oxford,1993,2,1,2,5,1.65,58,2,2,2,0,2,NA,1,2,34.9,36.1,35.5,51.75,-1.25,89,-1.666666667,08:06:22,5,1,2,1,NA,4,2,5,NA,3,1,4,4,1,NA,2,8,1,NA,NA,1,1,NA,1,NA,NA,NA,NA,NA,NA,NA,NA,NA,NA,2,3,2,4,2,4,1,2,2,3,4,4,4,3,3,4,3,3,3,3,3,3,3,3,3,2,2,3,4,2,1,1,3,4,3,2,2,2,2,2,1,1,4,2,4,2,3,2,2,2,2,4,2,2,3,4,3,4,3,4,2,2,3,3,3,4,3,4,4,4,4,3,4,4,4,4,5,4,3,4,3,4,5,4,4,4,4,4,4,3,4,4,4,5,3,3,4,4,4,2,3,1,3,2,2,2,3,4,2,2,2,2,3,4,2,4,4,4,4,3,2,3,4,2,4,4,3,5,2,1,5,4,3,2,2,2,3,2,3,3,2,2,3,3,3,3,3,4,3,2,3,3,2,2,3,2,2,3,2,2,2,3,3,3,3,2,3,2,3,2,2,1,3,4,3,3,4,1,3
Oxford,1993,2,1,1,7,1.69,58,4,2,0,2,2,NA,1,2,34.7,36.4,35.55,51.75,-1.25,74,2.777777778,07:50:49,5,1,2,1,NA,4,4,5,NA,3,2,8,8,1,NA,2,8,1,NA,NA,1,1,NA,2,University peer support,University play,NA,NA,NA,2,1,NA,NA,NA,3,4,3,3,2,2,3,1,2,4,4,2,3,2,4,4,2,2,2,2,3,2,2,2,4,2,3,4,4,3,4,4,4,4,3,5,4,4,4,4,2,3,3,3,3,1,4,5,6,4,6,4,7,6,7,6,4,5,5,4,2,5,5,5,2,3,3,7,4,3,4,6,4,4,1,2,3,3,6,5,3,1,4,5,4,4,5,5,3,3,4,4,6,4,4,4,5,5,5,3,2,1,2,3,2,3,2,1,2,2,2,1,1,1,2,5,8,6,6,5,5,7,2,4,4,4,4,2,2,2,2,3,2,2,2,3,2,2,2,3,3,3,4,2,4,4,3,4,3,4,4,4,2,2,3,2,2,2,2,3,2,2,2,4,2,2,2,4,4,3,4,4,2,3,4,4,4,2,2
METU,1993,1,1,1,7,1.7,64,3,2,6,0,2,NA,1,2,35.2,36,35.6,39.91169739,32.84030151,74,12,09:44:49,3,2,1,1,NA,4,4,4,1,3,1,5,5,1,NA,2,8,1,NA,NA,1,1,NA,2,Astronomi Toplulu?u,ANA?EV,NA,NA,NA,6,2,NA,NA,NA,4,4,4,4,4,4,3,2,3,4,4,4,5,2,2,3,3,2,2,2,2,2,2,3,4,3,2,2,2,3,2,4,2,3,2,2,4,4,4,4,4,2,2,2,2,2,3,5,2,1,1,5,5,2,2,2,1,3,1,2,1,2,5,1,1,1,2,1,2,1,1,1,2,2,2,2,3,2,1,2,2,2,2,4,3,4,4,4,5,4,4,4,5,7,7,7,6,5,5,2,2,4,2,2,2,3,3,2,2,2,2,2,4,2,2,5,6,6,4,3,4,5,2,2,4,4,3,4,3,2,4,4,2,2,2,4,4,4,2,4,4,4,4,4,4,4,4,4,2,3,4,3,2,3,2,4,4,4,4,3,2,4,2,4,2,2,2,4,4,4,4,4,4,2,2,2,2,4,2
METU,1993,2,1,1,3,1.58,80,3,2,1,0,2,NA,1,2,35.1,36.1,35.6,39.91169739,32.84030151,56,4,11:23:30,3,2,2,1,NA,4,4,4,2,7,2,5,5,1,NA,2,8,1,NA,NA,2,1,NA,1,NA,NA,NA,NA,NA,NA,NA,NA,NA,NA,2,3,4,2,2,3,2,2,2,3,4,1,4,3,4,4,2,2,2,2,2,3,3,4,4,2,2,3,4,3,3,4,2,2,3,1,5,4,5,5,5,1,2,2,3,2,5,5,3,5,5,6,3,6,2,4,1,3,3,2,2,2,5,2,1,6,2,4,3,2,2,3,3,3,2,2,1,1,4,5,6,3,6,5,5,5,5,5,5,5,5,5,5,4,4,4,3,2,3,3,2,2,3,1,4,4,2,3,2,1,2,1,2,3,2,4,4,5,1,3,3,3,2,2,4,4,4,4,2,2,4,3,2,1,2,3,4,4,3,4,4,4,4,2,4,4,4,4,4,3,5,5,2,2,1,2,1,4,3,4,2,2,4,4,2,5,1,5,3,5,5,5,1,4,5,2,4,2,4
SMU,1993,1,1,1,7,1.71,69,3,2,0,4,1,5,1,2,35.7,35.5,35.6,1.293106079,103.8558044,79,26,10:28:58,5,1,1,1,NA,4,1,4,1,2,1,4,3,1,NA,1,NA,1,NA,NA,1,1,NA,1,NA,NA,NA,NA,NA,NA,NA,NA,NA,NA,3,2,2,2,1,3,1,2,2,2,3,3,4,3,3,4,3,4,3,3,3,3,4,3,4,3,3,2,4,2,4,4,4,3,2,4,4,4,2,2,2,2,2,2,2,2,2,3,3,3,3,3,3,3,3,3,3,3,3,3,3,3,3,5,5,3,3,3,3,3,3,3,3,3,3,3,3,3,3,3,3,3,3,4,4,4,3,4,2,2,4,4,3,5,5,5,3,3,3,2,2,2,2,2,2,2,2,2,2,2,4,4,2,4,4,1,2,2,2,2,2,1,2,4,4,2,2,2,4,4,4,4,4,2,4,4,4,4,2,2,4,4,4,4,2,4,4,4,4,4,4,4,2,2,2,2,2,2,4,2,2,2,2,2,2,2,4,3,4,4,4,2,4,4,2,2,2,2,2
SMU,1993,1,1,1,7,1.74,78,4,2,0,0,1,1,1,2,35.6,35.6,35.6,1.293106079,103.8558044,70,27,10:16:06,5,1,2,1,NA,4,4,5,NA,5,5,8,3,1,NA,2,8,3,1,1,1,1,NA,1,NA,NA,NA,NA,NA,NA,NA,NA,NA,NA,4,2,4,2,2,3,3,3,2,2,4,2,2,2,4,4,3,3,1,3,2,3,3,3,5,2,3,3,3,3,4,4,3,4,4,4,2,2,2,2,2,4,4,4,2,3,2,4,4,2,2,4,3,3,2,4,5,2,2,2,2,2,4,2,2,2,1,3,2,1,3,2,1,1,1,1,1,1,2,1,2,2,1,5,5,5,5,5,5,5,5,5,3,5,4,4,4,3,4,4,4,2,3,2,2,4,4,4,2,2,2,2,3,4,2,4,2,2,2,1,1,1,4,5,5,2,1,2,4,5,3,5,3,2,4,4,3,4,3,2,3,3,4,4,3,3,2,5,5,3,4,4,1,1,2,1,1,4,4,1,2,4,4,4,3,1,4,3,3,2,2,2,4,4,3,2,2,2,1
METU,1993,1,4,1,7,1.8,85,4,2,6,0,1,20,1,2,35.3,36,35.65,39.91169739,32.84030151,70,3,10:58:17,3,2,2,1,NA,4,2,5,NA,5,5,5,5,2,8,2,3,3,1,1,1,2,8,2,ngo,ip,NA,NA,NA,8,12,NA,NA,NA,3,1,1,1,1,3,1,2,1,1,3,1,1,3,4,4,3,3,3,3,4,3,4,4,3,2,3,4,4,4,4,4,3,4,3,4,2,4,2,2,4,2,4,4,2,2,2,7,2,2,4,2,2,2,5,2,2,2,4,4,3,2,7,3,2,6,4,2,4,4,6,5,1,2,5,6,5,4,3,2,1,2,1,5,5,5,5,5,5,5,5,5,6,7,7,7,7,7,7,5,5,3,4,5,2,4,5,2,2,5,4,5,2,2,5,4,6,6,2,2,6,6,4,4,5,5,2,4,4,4,4,5,5,2,2,4,4,4,3,3,4,4,2,4,1,5,5,5,5,3,5,5,1,1,1,2,1,1,1,1,4,3,4,4,4,4,2,4,2,5,5,5,4,3,5,3,3,3,3
METU,1993,2,1,1,7,1.67,65,3,2,NA,NA,1,4,1,2,35.3,36.1,35.7,NA,NA,68,5,10:18:42,3,2,1,1,NA,4,4,4,2,3,3,5,5,1,NA,2,8,1,NA,NA,1,1,NA,2,ODT? Capoeira Toplulu?u,NA,NA,NA,NA,6,NA,NA,NA,NA,3,3,2,3,2,3,1,2,5,2,3,3,2,4,4,5,3,3,3,3,4,3,3,4,5,3,3,3,2,2,3,2,2,4,2,2,4,3,4,4,4,2,2,2,4,2,4,2,2,1,2,6,2,1,2,2,2,4,1,2,2,1,4,6,2,1,1,1,1,1,1,1,1,1,1,1,1,1,1,1,1,1,2,5,4,5,5,4,4,2,4,4,5,5,5,5,5,5,5,3,3,1,2,3,4,4,2,3,3,4,1,2,2,3,1,5,7,6,5,6,5,7,3,2,5,5,3,4,4,4,5,5,5,3,3,5,5,4,3,4,4,4,5,5,4,3,4,4,4,4,5,4,1,1,2,5,3,5,5,5,2,4,3,4,4,5,3,4,4,5,3,5,2,5,5,5,3,4,2
SMU,1993,1,1,2,1,1.86,72,4,2,1,0,2,NA,1,2,35.7,35.7,35.7,1.293106079,103.8558044,70,26,09:19:37,5,1,2,1,NA,4,4,5,NA,4,3,3,3,1,NA,2,3,1,NA,NA,1,2,6,2,Volunteer Group,NA,NA,NA,NA,5,NA,NA,NA,NA,2,4,2,2,2,3,2,2,4,4,3,4,2,4,4,3,3,3,3,3,4,2,4,2,2,3,3,3,4,3,4,3,2,2,4,3,4,3,3,4,2,4,2,3,3,2,4,4,5,3,5,5,4,3,3,5,3,5,4,5,5,5,4,5,3,3,4,5,4,5,4,4,6,5,5,3,2,4,3,4,4,5,7,4,3,4,4,4,4,3,2,3,4,3,5,3,3,3,5,3,3,4,3,3,2,4,3,3,4,4,2,4,4,4,3,4,2,5,5,3,5,4,4,3,3,4,3,3,2,3,3,4,3,2,3,3,2,3,3,4,4,2,3,3,3,4,4,3,2,2,3,3,4,2,3,3,2,3,2,4,4,3,3,4,3,4,2,2,3,3,3,2,3,4,3,3,4,2,3
SMU,1993,2,1,1,7,1.61,50,3,2,0,0,2,NA,1,2,35.7,35.7,35.7,1.293106079,103.8558044,71,26,09:50:43,5,1,2,1,NA,4,4,5,NA,1,NA,6,3,1,NA,2,8,3,2,8,1,2,3,1,NA,NA,NA,NA,NA,NA,NA,NA,NA,NA,3,2,3,2,3,4,2,3,2,2,3,2,2,3,4,4,2,3,3,3,3,2,3,4,4,2,4,4,4,4,4,3,2,4,3,4,4,4,4,4,4,2,3,2,2,3,4,5,6,5,6,4,3,2,3,2,6,6,2,5,2,4,6,2,3,5,3,3,2,2,2,4,2,5,2,2,1,2,4,2,3,2,3,4,2,4,4,3,4,2,4,4,6,5,5,5,5,4,5,4,4,2,4,4,2,4,3,2,3,3,2,2,2,3,2,4,3,6,2,4,4,4,1,4,4,2,1,2,2,3,4,4,4,1,3,4,4,4,4,3,2,2,5,5,4,4,3,4,2,2,2,2,2,4,3,4,2,5,2,3,3,4,4,4,4,2,3,2,4,2,2,2,4,4,2,4,3,2,4
VCU,1993,1,1,2,7,1.778,75,5,2,1,0,2,NA,1,2,35.44444444,36,35.72222222,37.55220032,-77.45819855,91,14.44444444,11:02:06,5,1,2,1,NA,4,4,5,NA,8,2,3,3,1,NA,2,8,1,NA,NA,1,1,NA,1,NA,NA,NA,NA,NA,NA,NA,NA,NA,NA,4,4,3,2,2,4,3,4,3,4,3,5,4,2,3,2,2,3,2,2,2,2,2,2,2,2,2,1,2,1,2,1,1,2,1,2,3,1,2,2,1,1,1,1,3,1,2,2,3,2,2,2,1,1,2,2,1,2,4,5,3,2,2,2,1,2,3,2,3,3,2,4,2,2,2,2,3,2,2,4,4,2,3,4,4,4,4,4,3,3,4,3,3,3,3,4,4,4,5,2,2,2,2,2,2,2,2,2,3,2,1,1,2,4,2,1,1,3,1,3,3,1,2,4,3,3,3,2,2,2,2,4,2,2,4,4,3,3,2,3,3,4,3,3,4,3,3,4,3,4,4,3,2,2,3,1,5,4,3,4,3,2,2,4,3,3,3,3,3,2,2,2,4,3,2,2,4,4,2
METU,1993,1,1,1,7,1.78,95,4,2,6,0,2,NA,1,2,35.5,36,35.75,39.91169739,32.84030151,78,8,11:00:45,3,2,2,1,NA,4,2,4,1,2,2,4,2,1,NA,2,4,3,1,4,1,1,NA,1,NA,NA,NA,NA,NA,NA,NA,NA,NA,NA,4,2,4,2,5,5,3,4,3,4,4,4,5,2,3,3,2,2,1,3,2,2,2,3,5,2,2,4,3,2,4,3,4,4,2,4,5,4,5,5,5,2,2,2,4,2,5,5,5,3,5,6,4,2,3,2,2,3,3,3,3,2,5,5,2,2,1,3,1,2,1,2,1,2,3,2,1,1,2,1,2,2,2,2,2,4,4,2,2,1,1,2,3,6,6,6,6,4,4,2,2,1,2,2,2,2,3,2,2,2,1,2,2,2,2,4,2,2,1,2,3,3,2,2,4,4,3,2,4,4,2,4,4,5,4,4,3,4,4,4,3,4,4,4,4,3,4,5,2,3,5,2,2,2,1,3,2,3,4,2,1,4,4,4,4,4,2,4,4,5,5,4,3,2,4,3,4,2,2
Kassel,1993,2,1,1,7,1.7,59,5,2,1,0,2,NA,1,2,35.7,35.8,35.75,50.13330078,8.916702271,69,-1,10:41:03,1,1,2,1,NA,4,4,5,NA,2,2,8,5,1,NA,2,6,3,1,4,1,2,5,2,Fachschaftsrat,/,/,/,/,7,0,0,0,0,4,3,5,5,4,5,5,5,5,5,5,4,5,2,4,4,2,1,2,2,4,2,2,4,4,1,1,4,5,4,5,2,1,2,3,5,4,4,4,4,3,2,2,2,1,1,4,1,1,1,1,1,5,1,1,1,5,1,1,1,1,1,1,5,2,4,3,6,3,4,2,6,2,5,2,2,2,3,2,6,6,1,2,4,4,4,4,2,1,1,3,4,3,5,5,5,4,3,2,3,4,1,4,2,2,2,2,4,1,2,3,2,2,2,2,5,6,1,2,4,4,3,2,4,3,5,2,2,2,4,1,5,4,2,3,4,2,2,3,2,1,5,5,5,4,3,3,3,4,2,4,2,3,2,4,4,4,3,2,2,1,2,2,3,1,1,1,4,5,2,2,1,1,1,3,2,4,1,2
METU,1993,1,1,1,5,1.84,87,3,2,2,0,2,NA,1,2,35.1,36.5,35.8,39.91169739,32.84030151,62,5,11:15:13,3,2,3,1,NA,4,4,4,4,3,2,7,7,1,NA,2,8,1,NA,NA,3,2,4,2,AEGEE,Standing honor,petrol,NA,NA,7,4,6,NA,NA,4,5,1,3,2,4,2,3,5,3,4,2,3,3,3,3,2,2,3,3,3,2,3,3,4,2,3,2,4,2,3,2,2,4,2,4,4,4,4,4,4,3,2,2,2,2,4,6,2,4,5,6,6,5,6,6,2,5,5,3,6,2,5,5,2,2,2,2,2,2,6,2,2,2,2,2,2,2,2,2,2,2,2,4,4,4,4,4,2,2,3,3,6,2,2,2,2,2,2,4,4,2,2,2,4,4,4,3,2,2,2,4,4,2,2,4,4,5,1,3,1,4,2,2,4,4,1,1,2,4,1,5,5,2,5,5,2,4,2,4,2,4,4,4,4,4,4,4,4,3,4,3,2,2,2,2,2,4,2,4,4,4,3,4,3,3,4,3,4,3,3,3,4,3,3,3,2,2,2
Zurich,1993,1,1,2,6,1.77,58,3,2,7,0,2,NA,1,2,35.2,36.4,35.8,NA,NA,66,12,11:18:18,1,1,2,1,NA,4,4,5,NA,5,1,5,4,1,NA,2,3,1,NA,NA,1,1,NA,1,NA,NA,NA,NA,NA,NA,NA,NA,NA,NA,2,2,1,3,2,2,1,2,1,3,3,1,2,4,3,4,3,4,4,4,3,3,4,4,4,2,4,3,4,2,4,2,1,2,4,4,4,4,4,3,2,1,1,1,1,2,2,6,6,6,6,6,6,6,6,6,4,2,4,4,5,7,3,6,3,6,3,6,4,5,4,2,5,5,3,3,5,5,5,6,6,3,4,5,4,5,4,4,5,4,4,4,6,5,5,5,6,4,5,1,4,2,3,2,2,4,2,2,2,3,3,2,1,4,3,5,7,5,4,2,5,6,4,3,2,5,4,4,2,2,4,4,4,2,1,5,5,2,2,3,1,4,4,5,3,4,3,3,2,3,4,4,1,2,2,1,2,4,3,1,2,4,3,4,4,1,2,4,2,1,2,1,3,5,2,2,4,3,2
SMU,1993,1,1,1,4,1.67,54,5,2,3,0,2,NA,1,2,35.6,36,35.8,1.293106079,103.8558044,70,27,10:31:34,5,1,2,1,NA,2,2,5,NA,8,1,8,8,1,NA,2,8,1,NA,NA,1,2,6,1,NA,NA,NA,NA,NA,NA,NA,NA,NA,NA,4,1,1,4,2,2,1,4,2,2,4,2,4,2,2,5,2,4,2,2,2,1,4,1,2,4,4,5,5,2,5,4,5,2,3,5,3,5,5,4,4,4,2,4,2,4,4,2,2,2,2,7,2,2,2,1,2,2,1,6,6,1,2,1,3,6,1,6,3,2,1,1,2,2,1,2,2,1,1,2,4,3,2,4,3,4,3,4,5,3,4,4,5,6,6,6,6,5,7,2,2,2,4,1,1,4,1,2,1,1,1,2,2,2,4,3,3,2,1,1,1,2,1,1,4,4,2,4,2,4,3,4,4,2,2,2,4,2,4,3,4,4,2,1,4,4,2,4,3,4,4,4,2,2,2,2,1,2,4,2,2,2,4,2,5,2,2,2,5,2,2,2,4,4,2,5,2,1,1
VCU,1993,1,1,1,6,1.905,97.72727273,3,2,2,0,2,NA,1,2,35.61111111,36.05555556,35.83333333,37.55220032,-77.45819855,94,13.33333333,11:43:49,5,1,2,1,NA,4,2,4,1,4,3,6,6,1,NA,2,3,3,1,5,1,1,NA,1,NA,NA,NA,NA,NA,NA,NA,NA,NA,NA,4,4,2,3,4,4,4,3,3,2,4,5,3,3,2,4,2,2,2,3,2,2,3,3,4,2,2,2,3,2,3,2,2,4,3,2,4,4,4,4,3,2,2,2,2,2,4,4,3,2,5,2,2,4,3,3,3,3,3,3,4,3,4,6,2,5,3,5,3,4,4,2,4,4,3,2,4,3,5,4,4,3,4,4,4,4,4,4,4,2,3,3,6,6,4,5,5,5,5,2,3,2,2,2,3,2,2,3,3,2,2,3,2,3,2,4,6,4,3,3,4,3,2,4,4,2,1,1,3,2,3,5,4,3,4,5,2,5,3,2,3,2,4,4,3,5,3,3,3,3,4,2,2,2,2,2,4,4,3,2,2,4,4,2,4,4,4,4,3,4,4,2,3,4,3,2,2,2,3
METU,1993,2,1,2,7,1.67,54,3,2,NA,NA,1,16,1,2,35.3,36.4,35.85,39.91169739,32.84030151,64,6,11:00:10,3,2,4,1,NA,4,4,5,NA,3,2,5,5,1,NA,2,8,1,NA,NA,1,2,8,1,NA,NA,NA,NA,NA,NA,NA,NA,NA,NA,4,3,4,4,4,3,3,4,4,2,4,4,4,3,4,5,3,3,2,3,3,3,3,5,4,1,3,3,4,4,3,4,2,2,1,3,4,4,2,4,4,1,1,1,2,1,3,6,4,4,5,4,5,2,6,6,4,4,1,4,5,1,6,1,2,1,2,6,6,4,2,2,3,2,2,2,2,2,5,5,6,1,4,4,3,4,3,3,3,3,3,3,7,5,6,6,6,6,6,4,4,4,4,3,2,4,4,4,4,2,2,2,2,2,3,5,7,1,6,7,5,4,1,1,4,4,2,4,4,3,5,4,4,1,2,4,4,3,2,4,2,4,4,3,4,4,4,4,4,2,3,2,2,3,2,4,4,3,2,4,2,4,4,3,4,4,1,4,3,4,4,4,2,5,4,4,3,3,4
METU,1993,1,1,2,7,1.77,74,4,2,2,0,1,21,1,2,35.7,36,35.85,39.91169739,32.84030151,70,3,10:17:50,3,2,2,1,NA,4,4,4,1,4,2,8,5,1,NA,2,8,1,NA,NA,1,1,NA,1,NA,NA,NA,NA,NA,NA,NA,NA,NA,NA,2,2,3,5,2,5,2,1,4,1,3,2,3,5,4,3,3,3,4,2,2,3,3,4,4,2,3,4,2,4,4,4,5,2,1,4,4,4,4,4,4,1,5,1,4,1,4,5,2,2,3,6,6,7,5,6,5,4,6,5,5,1,4,1,2,2,2,7,3,3,2,2,5,4,5,3,7,5,2,5,3,2,3,4,4,4,5,5,3,4,4,4,6,6,5,7,7,5,5,4,2,1,2,4,1,1,4,3,2,1,2,4,3,4,4,3,2,2,2,1,1,2,3,3,2,4,1,2,2,4,2,5,5,2,5,5,2,4,4,5,3,4,3,4,3,2,2,4,4,2,2,2,4,3,2,4,5,4,3,3,4,4,3,4,5,2,3,4,2,4,4,4,2,2,3,2,2,3,1
VCU,1993,2,1,1,7,1.651,65.90909091,3,2,4,0,2,NA,1,2,35.61111111,36.11111111,35.86111111,NA,NA,87,15,10:38:06,5,1,1,1,NA,2,2,4,1,2,2,4,2,1,NA,2,4,3,1,8,1,1,NA,1,NA,NA,NA,NA,NA,NA,NA,NA,NA,NA,3,3,4,4,3,3,2,3,2,2,3,3,5,4,3,3,2,2,2,2,4,4,2,3,5,1,5,3,4,2,2,2,2,1,2,4,1,1,2,4,2,1,1,1,1,2,2,1,1,1,1,2,1,2,2,2,1,6,1,1,1,2,5,2,2,2,2,2,1,1,1,2,1,6,2,2,2,1,1,6,2,1,2,5,5,5,5,5,5,2,4,4,4,6,5,4,5,5,5,4,5,4,4,2,4,3,4,4,3,2,2,4,1,2,2,5,8,6,7,7,5,1,5,4,5,4,3,1,2,3,3,5,2,1,3,5,4,4,2,2,3,4,5,4,2,5,3,4,4,3,4,4,4,4,4,2,3,5,2,5,2,3,3,4,2,3,4,4,4,4,4,3,5,4,3,2,3,1,4
SMU,1993,1,1,2,4,1.74,77,3,2,0,0,2,NA,1,2,35.8,36,35.9,1.293106079,103.8558044,71,26,10:53:04,5,1,2,1,NA,4,4,5,NA,1,NA,6,5,1,NA,2,8,3,1,6,2,1,NA,1,NA,NA,NA,NA,NA,NA,NA,NA,NA,NA,4,4,5,4,2,5,3,2,3,2,4,4,4,2,5,4,2,2,2,2,2,2,2,3,5,2,3,3,4,3,4,4,3,4,4,4,2,2,2,4,2,2,2,2,2,2,4,3,3,4,6,6,5,3,5,2,5,3,6,5,6,5,6,2,3,1,1,3,1,2,2,3,4,3,2,4,2,2,3,3,4,2,4,5,4,4,4,4,4,4,4,4,7,4,5,3,5,5,5,3,4,2,3,2,3,4,2,3,2,3,3,1,1,2,1,2,2,3,2,2,4,4,2,2,4,2,1,4,4,4,4,4,4,2,4,4,4,4,4,4,4,4,4,4,4,4,4,4,4,4,4,4,4,4,4,2,4,4,2,4,2,2,3,4,2,4,2,4,4,4,4,4,4,4,4,4,3,5,2
VCU,1993,2,1,2,7,1.651,62.72727273,4,2,0,0,2,NA,1,2,35.55555556,36.33333333,35.94444444,37.55220032,-77.45819855,94,13.33333333,10:43:09,5,1,2,1,NA,2,2,5,NA,8,4,5,5,2,8,2,6,3,1,5,1,1,NA,1,NA,NA,NA,NA,NA,NA,NA,NA,NA,NA,2,1,1,4,2,3,1,2,1,2,4,2,3,4,4,4,3,3,2,1,4,2,2,4,4,2,4,5,5,4,5,4,4,4,4,5,5,5,5,5,3,3,4,4,5,4,5,2,5,3,6,2,6,3,3,6,4,5,1,2,2,6,1,7,1,5,3,5,2,5,1,2,2,3,2,5,3,2,2,4,2,2,4,4,4,5,3,4,4,4,4,4,6,6,5,3,6,6,6,3,3,1,3,1,2,2,2,3,1,2,2,2,2,3,3,5,7,6,3,3,4,4,2,4,5,4,1,4,4,2,4,5,4,1,4,4,4,4,3,2,4,3,4,5,4,4,5,4,3,4,3,3,3,4,2,2,4,4,4,4,2,4,4,5,3,4,3,5,5,4,3,5,2,4,4,5,4,1,4
Portugal,1993,1,1,1,3,1.73,74,4,2,0,0,2,NA,1,2,35.9,36,35.95,38.71670532,-9.133300781,73,13,09:58:30,8,1,2,1,NA,4,4,4,1,3,2,2,8,1,NA,2,3,3,4,4,4,2,7,2,amigos,familia,trabalho,Futsal,Faculdade,2,3,6,6,4,4,5,3,4,5,5,5,2,4,5,5,3,5,3,3,3,2,3,4,2,2,2,3,3,4,3,2,2,2,2,2,1,1,3,4,2,2,2,3,2,2,3,1,3,3,3,2,3,3,6,3,3,3,5,3,5,6,6,3,3,6,6,3,3,6,6,3,5,5,3,3,6,6,5,2,2,5,2,3,3,2,3,3,4,4,4,4,4,4,4,4,4,5,2,2,2,3,3,2,2,5,3,1,5,2,3,5,5,5,2,1,5,4,5,4,3,3,5,3,4,2,2,3,3,4,4,2,2,2,2,4,4,4,2,4,4,3,3,4,4,4,4,4,4,4,3,3,3,3,4,4,3,3,1,4,3,4,4,3,3,3,3,3,3,3,3,3,4,3,3,3,3,3,3,3,3,1,1,1
Oslo,1993,2,1,2,7,1.68,68,4,2,NA,NA,2,NA,1,2,36,35.9,35.95,59.91270447,10.74609375,69,-4,09:41:05,4,1,2,1,NA,4,4,5,NA,3,2,8,6,2,1,2,3,3,1,6,2,1,NA,1,NA,NA,NA,NA,NA,NA,NA,NA,NA,NA,3,3,3,4,2,1,1,3,2,2,2,5,3,4,2,4,2,4,2,3,4,2,3,2,5,4,5,4,4,3,4,2,2,2,3,4,4,4,3,4,3,3,2,2,3,2,3,4,4,4,4,4,4,4,5,4,4,5,4,4,4,4,4,6,4,4,4,6,4,4,4,4,4,4,4,4,4,4,5,4,4,5,4,5,5,5,5,5,2,3,5,5,5,6,6,6,6,5,5,3,3,1,2,3,2,3,3,2,4,1,2,1,2,3,1,3,4,5,1,2,2,2,1,5,3,4,3,4,1,2,3,2,4,4,3,4,4,2,2,4,2,2,4,4,5,4,5,3,4,4,3,4,3,3,3,4,2,4,2,3,3,2,3,4,3,3,2,4,4,4,4,4,1,3,4,4,4,2,4
SMU,1993,2,1,1,7,1.63,59,3,2,0,1,2,NA,1,2,35.5,36.4,35.95,1.293106079,103.8558044,70,26,09:32:19,5,1,2,1,NA,4,4,5,NA,3,3,2,2,2,2,2,3,1,NA,NA,1,1,NA,1,NA,NA,NA,NA,NA,NA,NA,NA,NA,NA,3,3,3,4,4,4,2,3,3,3,4,5,5,3,3,5,3,3,3,3,3,3,3,4,4,2,3,3,4,3,4,3,4,3,4,4,3,2,3,3,3,2,3,3,2,2,2,7,6,5,5,6,7,6,3,5,2,5,2,3,7,4,4,6,3,3,1,2,1,2,2,3,2,1,1,1,1,1,3,3,3,2,3,4,4,3,3,3,3,3,3,3,6,6,4,4,4,4,4,4,4,3,3,4,4,5,4,3,4,4,3,4,2,3,2,5,6,6,3,3,4,4,3,3,4,2,2,3,3,4,3,4,4,2,3,4,4,4,3,2,3,5,3,4,3,5,4,5,4,3,4,3,2,2,2,2,2,4,4,2,3,4,5,2,4,2,3,3,4,3,4,3,3,2,3,2,2,2,2
METU,1993,1,1,1,7,1.86,86,4,2,NA,NA,2,NA,1,2,35.4,36.6,36,39.91169739,32.84030151,64,2,09:31:53,3,2,2,1,NA,4,4,4,1,5,2,5,5,1,NA,2,4,1,NA,NA,1,2,2,2,Eskrim TAKIMI,Bitirme projesi grubu,NA,NA,NA,20,4,NA,NA,NA,4,5,5,5,5,1,3,4,4,4,2,4,4,2,3,3,3,4,2,3,2,2,2,3,3,2,2,1,1,1,1,3,1,1,1,2,4,3,4,4,4,2,1,2,1,1,3,6,3,1,2,4,4,2,1,2,1,5,1,2,2,4,5,3,2,1,2,2,2,2,2,2,2,2,2,4,3,2,1,2,2,1,2,5,5,5,5,5,3,3,5,5,5,5,3,4,3,2,3,2,2,1,2,2,2,1,3,2,2,2,2,1,2,2,2,5,6,3,2,1,1,1,4,2,4,4,2,2,5,5,2,4,4,3,4,4,2,4,2,4,3,4,3,2,4,4,3,4,5,3,4,4,1,1,1,2,5,4,3,3,2,2,4,4,3,3,3,3,2,3,3,3,4,3,4,2,2,3,1
METU,1993,1,1,2,7,1.78,62,5,2,2,0,2,NA,1,2,35.7,36.3,36,39.91169739,32.84030151,70,3,11:01:06,3,2,2,1,NA,4,4,5,NA,8,2,6,6,2,1,2,8,1,NA,NA,1,1,NA,1,NA,NA,NA,NA,NA,NA,NA,NA,NA,NA,5,5,5,5,5,2,4,5,4,5,5,5,5,1,2,1,1,1,5,1,1,1,1,2,3,1,1,1,2,2,1,1,1,2,1,1,2,2,2,1,2,1,1,1,1,1,2,2,1,1,1,6,2,1,1,2,1,2,2,2,1,1,2,1,1,2,2,2,2,2,1,1,2,2,2,6,2,2,1,1,1,1,2,5,5,5,5,5,5,4,4,4,1,2,3,2,2,2,2,1,2,1,2,1,1,1,1,2,1,2,1,1,5,4,5,3,2,1,1,2,2,2,4,4,2,4,2,1,1,1,1,4,2,2,2,2,2,2,2,2,2,2,2,4,3,1,1,3,3,2,2,2,2,2,1,2,2,5,5,5,1,4,5,2,3,2,2,2,2,4,4,4,2,1,2,4,2,1,1
Kassel,1993,2,1,1,6,1.6,55,3,2,1,0,2,NA,1,2,35.6,36.4,36,51.23330688,9.916702271,83,0,10:35:34,1,1,1,1,NA,4,2,4,1,7,2,7,6,1,NA,2,8,1,NA,NA,1,1,NA,1,NA,NA,NA,NA,NA,NA,NA,NA,NA,NA,2,3,4,4,2,3,2,2,2,2,3,2,3,4,3,4,3,3,3,3,4,3,3,4,4,3,4,2,4,2,3,1,1,4,2,4,4,3,2,4,3,1,2,2,2,2,3,6,6,6,6,5,5,6,5,6,1,2,4,4,4,6,3,5,2,4,2,4,2,6,2,2,2,2,2,2,3,2,2,6,4,2,3,4,4,4,4,3,2,2,2,2,6,6,6,6,6,5,5,2,2,3,2,4,2,2,2,2,2,3,2,2,2,2,2,5,7,7,5,4,3,6,4,4,4,4,2,2,2,4,2,4,4,3,4,4,3,4,3,2,4,4,3,3,4,5,5,5,3,3,5,3,2,3,2,2,2,5,4,3,2,3,2,4,2,4,4,4,4,4,4,3,2,4,4,3,3,2,4
VCU,1993,1,1,1,7,1.905,97.18181818,2,2,0,0,2,NA,1,2,36.16666667,35.88888889,36.02777778,37.55220032,-77.45819855,94,13.33333333,13:34:39,5,1,1,1,NA,4,2,5,NA,3,1,8,8,1,NA,2,8,3,1,5,2,1,NA,2,fraternity,NA,NA,NA,NA,20,NA,NA,NA,NA,3,2,3,5,2,3,1,2,1,2,3,2,4,2,4,5,3,2,2,2,3,3,4,2,5,4,2,2,4,2,4,2,4,4,1,4,4,4,4,4,4,2,2,2,2,1,4,2,2,1,3,2,2,2,4,7,1,1,2,5,4,1,1,2,1,5,2,5,3,3,2,2,6,2,1,1,1,2,1,5,5,1,2,5,5,4,5,5,4,2,4,2,5,5,6,5,4,3,3,2,4,2,2,2,2,2,2,2,2,2,2,1,1,4,1,4,4,5,1,3,3,2,4,4,4,4,2,2,2,4,4,5,2,1,3,4,2,2,4,4,4,3,3,2,5,4,3,4,4,5,4,4,3,2,4,4,4,5,2,4,4,2,3,5,2,2,4,2,4,4,4,4,2,4,4,4,3,4,4
SMU,1993,1,1,1,5,1.81,61,4,2,16,0,2,NA,1,2,36,36.1,36.05,1.293106079,103.8558044,70,27,09:27:46,5,1,2,1,NA,4,4,5,NA,5,5,8,8,1,NA,2,6,1,NA,NA,1,2,4,1,NA,NA,NA,NA,NA,NA,NA,NA,NA,NA,4,4,4,4,2,2,3,3,2,5,4,4,4,2,3,3,1,2,1,2,3,1,2,2,5,2,3,1,4,2,4,4,3,4,2,2,4,1,4,4,4,1,1,1,1,1,4,2,2,1,1,1,1,1,1,1,7,2,1,1,2,1,1,1,1,1,1,1,1,1,1,1,1,1,2,1,1,1,1,1,2,1,1,4,4,4,4,4,4,2,4,3,4,5,6,5,5,5,5,2,2,2,1,1,2,2,2,2,2,1,1,2,1,2,3,4,4,6,3,4,1,5,2,5,5,3,1,2,5,5,2,5,4,4,4,5,2,5,1,2,5,4,2,2,4,4,4,5,4,4,4,4,1,1,3,4,4,4,2,4,1,2,3,4,2,4,1,4,4,4,5,4,2,5,4,4,2,2,4
METU,1993,2,1,1,7,1.6,59,4,1,8,0,2,NA,1,2,35.7,36.4,36.05,39.91169739,32.84030151,72,8,11:00:32,3,2,2,1,NA,4,4,4,2,8,3,4,4,1,NA,2,5,1,NA,NA,1,2,3,2,psikoloji toplulu?u,P?MYAP,T?Y?V,NA,NA,2,3,2,NA,NA,4,4,4,5,2,3,2,2,2,4,5,2,4,2,3,3,2,2,3,2,2,2,2,3,4,3,2,3,4,2,4,4,3,2,2,2,2,2,2,2,3,2,2,2,4,2,2,4,2,4,3,7,5,4,5,3,2,5,2,2,2,2,6,2,2,2,2,2,2,2,2,2,2,2,2,1,2,2,2,2,2,2,2,5,5,5,5,5,3,3,4,4,5,5,5,6,6,4,5,2,2,1,2,2,2,2,2,2,2,2,2,2,2,2,2,4,6,6,1,5,5,5,2,2,3,4,2,2,2,3,3,5,5,2,4,4,4,4,2,3,4,4,3,4,4,3,4,5,4,4,5,4,1,1,1,2,4,2,2,2,2,4,3,4,2,4,2,4,3,4,3,4,2,4,3,2,2,2,3
SMU,1993,1,1,1,3,1.81,80.1,4,2,2,0,2,NA,1,2,35.9,36.2,36.05,NA,NA,79,26,09:58:09,5,1,2,1,NA,4,4,5,NA,3,1,5,5,2,3,2,3,1,NA,NA,1,1,NA,1,NA,NA,NA,NA,NA,NA,NA,NA,NA,NA,4,4,4,4,3,4,3,3,2,4,4,3,4,2,2,3,3,3,3,3,2,2,2,3,3,2,2,3,3,3,3,3,3,4,3,3,3,2,2,3,2,3,3,3,3,3,2,4,4,4,4,4,4,4,4,4,4,6,2,4,4,2,4,4,4,4,4,4,3,4,2,4,4,4,6,3,4,3,4,4,4,4,4,4,4,4,4,4,4,4,4,4,3,4,4,4,3,3,4,2,2,3,2,2,2,3,3,2,2,2,3,2,2,4,3,5,6,4,5,2,5,2,3,3,3,3,3,3,3,3,3,4,2,2,4,4,2,4,2,2,3,3,4,2,4,4,2,4,3,3,4,3,2,3,2,4,2,4,3,3,3,3,4,3,3,3,3,3,3,3,3,3,3,3,3,3,3,3,3
METU,1993,2,1,2,7,1.55,55,4,2,2,1,2,NA,1,2,35.5,36.6,36.05,39.91169739,32.84030151,71,8,10:37:50,3,2,2,1,NA,4,4,5,NA,7,5,5,5,1,NA,2,5,3,1,2,3,2,3,1,NA,NA,NA,NA,NA,NA,NA,NA,NA,NA,4,5,4,5,2,4,2,1,2,5,4,3,5,2,3,3,3,3,2,3,3,3,3,3,3,2,3,4,4,4,4,4,4,5,2,4,5,4,5,4,4,1,4,4,1,4,5,6,5,4,7,7,6,6,6,6,3,6,5,4,2,2,6,6,6,5,3,5,2,5,4,5,2,2,2,1,3,2,2,3,3,2,2,5,5,4,5,5,4,5,4,4,3,4,2,3,3,2,4,2,2,4,2,1,4,1,4,2,4,4,2,4,4,4,2,3,3,5,1,2,2,2,2,2,4,4,2,4,3,2,4,5,4,1,1,4,4,2,2,2,2,4,4,3,4,4,4,5,5,4,4,4,4,4,4,4,4,3,4,3,1,4,3,5,3,2,2,5,4,5,5,4,1,4,5,2,2,2,2
VCU,1993,2,3,1,7,1.6256,79.54545455,3,3,4,0,2,NA,1,2,35.72222222,36.38888889,36.05555556,38.81149292,-77.12850189,81,14.44444444,10:59:52,5,1,2,1,NA,4,2,5,NA,2,1,4,6,1,NA,2,6,1,NA,NA,1,1,NA,1,NA,NA,NA,NA,NA,NA,NA,NA,NA,NA,3,2,3,1,2,3,1,2,1,2,3,2,3,3,3,4,3,2,4,4,4,3,4,4,3,3,5,4,4,3,5,4,2,4,2,4,4,3,4,3,2,1,1,2,3,2,4,2,1,3,1,1,5,4,5,3,5,1,1,2,1,5,4,6,7,6,5,7,3,7,6,2,3,3,3,6,5,2,2,4,5,4,6,4,5,4,5,5,5,5,5,5,6,6,7,6,6,6,6,3,4,2,4,2,2,4,2,4,3,2,2,3,2,3,2,4,7,4,5,4,3,3,3,2,4,4,3,1,1,2,4,4,3,2,2,2,4,2,2,4,4,4,4,3,4,4,5,4,4,4,2,3,4,2,1,3,4,5,5,3,1,2,3,4,3,3,4,5,5,5,3,2,4,4,4,3,3,2,5
VCU,1993,2,3,2,6,1.7018,86.36363636,2,2,6,0,1,3,1,2,36.27777778,35.88888889,36.08333333,37.55380249,-77.46029663,64,10.55555556,09:45:55,5,1,2,1,NA,4,3,5,NA,1,NA,3,3,1,NA,2,3,1,NA,NA,1,1,NA,1,NA,NA,NA,NA,NA,NA,NA,NA,NA,NA,2,3,4,4,3,2,2,2,4,3,3,2,4,3,4,5,3,3,3,3,4,3,3,3,5,2,3,4,4,4,4,2,3,2,4,4,3,4,4,4,4,3,4,4,2,3,4,3,2,3,6,3,3,2,6,2,4,3,5,6,2,4,2,5,2,2,2,3,2,2,2,2,2,4,2,3,2,2,2,5,2,2,6,5,2,5,4,1,2,2,2,2,1,3,2,2,2,2,2,1,1,3,1,1,4,1,2,1,2,1,1,1,1,2,1,2,2,2,2,2,2,2,2,4,4,4,2,2,2,4,4,5,4,2,4,5,5,5,3,5,2,5,5,5,4,5,3,3,1,4,3,2,3,4,3,4,5,4,5,2,2,4,5,4,5,3,5,5,5,4,4,4,1,5,5,1,1,5,3
METU,1993,1,1,2,7,1.85,85,3,2,NA,NA,2,NA,1,2,35.8,36.4,36.1,39.91169739,32.84030151,62,5,10:16:02,3,2,3,1,NA,4,4,5,NA,4,4,8,6,1,NA,2,8,3,1,6,1,1,NA,1,NA,NA,NA,NA,NA,NA,NA,NA,NA,NA,3,4,5,3,4,2,3,3,5,1,4,5,5,3,2,4,2,1,4,3,2,3,2,3,2,3,2,3,3,4,1,4,1,3,2,2,1,3,1,3,3,1,1,2,4,1,1,5,4,4,5,7,7,5,5,4,2,4,6,5,4,4,5,2,1,3,1,2,1,1,1,1,1,1,2,2,2,1,2,2,2,1,2,5,3,5,5,5,2,2,3,3,5,5,5,5,4,5,5,2,4,1,2,2,2,4,3,3,3,5,1,1,2,4,2,5,3,4,2,2,3,2,5,1,5,5,2,1,5,5,2,5,4,3,4,4,2,4,3,2,3,5,5,3,3,5,4,5,3,4,4,4,1,1,1,3,2,4,5,3,1,4,3,3,3,1,4,5,3,4,5,5,3,3,3,3,3,1,1
SMU,1993,1,1,1,4,1.83,85,4,2,0,1,2,NA,1,2,36.1,36.1,36.1,1.293106079,103.8558044,71,26,10:41:47,5,1,2,1,NA,4,4,4,2,2,1,4,4,1,NA,2,4,1,NA,NA,1,1,NA,1,NA,NA,NA,NA,NA,NA,NA,NA,NA,NA,3,3,2,3,2,4,2,3,3,3,4,2,2,3,3,4,3,2,2,2,4,2,2,4,3,2,4,4,4,4,2,4,3,3,3,3,3,4,4,3,4,3,3,4,4,4,3,5,3,5,4,4,4,5,3,4,4,4,5,3,4,3,4,4,5,6,3,4,5,4,4,5,3,3,2,4,4,5,5,3,5,5,3,4,4,4,4,4,4,4,4,4,2,3,4,4,3,5,5,4,4,4,2,4,4,4,3,3,4,3,2,3,3,4,3,3,2,4,2,3,2,3,4,3,4,4,4,3,4,4,4,3,4,3,4,3,4,4,4,4,4,4,3,4,3,3,3,4,4,4,3,4,4,3,3,4,3,4,4,4,3,3,4,4,4,4,4,3,4,3,4,4,4,4,3,4,4,4,4
SMU,1993,2,1,1,7,1.55,48,4,2,1,0,2,NA,1,2,36.2,36,36.1,1.293106079,103.8558044,79,26,10:30:40,5,1,2,1,NA,4,4,5,NA,1,NA,6,4,1,NA,2,8,1,NA,NA,3,1,NA,1,NA,NA,NA,NA,NA,NA,NA,NA,NA,NA,4,3,3,3,3,4,2,3,3,3,4,2,3,3,3,3,2,2,2,3,3,2,3,3,3,3,3,4,4,4,4,4,4,4,4,3,4,4,4,4,3,2,2,3,3,2,4,4,6,2,5,2,3,3,5,2,2,4,4,6,4,4,4,5,2,2,2,5,3,4,3,4,2,3,2,3,3,2,4,4,5,3,2,4,4,4,4,4,4,4,4,4,2,5,5,5,5,5,5,3,3,3,2,3,3,3,3,3,3,3,2,4,2,4,2,5,6,6,3,5,3,6,2,4,4,2,2,3,4,4,4,5,4,3,5,4,4,4,2,4,3,4,4,4,4,4,4,4,4,3,4,3,2,2,3,4,3,4,4,3,3,4,4,4,4,4,2,4,4,4,4,4,3,4,4,4,2,3,4
Tsinghua,1993,1,1,1,6,1.78,62,2,2,0,0,2,0,1,2,35.9,36.3,36.1,30.58009338,114.273407,78,17,11:04:29,7,3,1,1,0,4,4,4,1,6,2,4,4,1,4,1,4,1,1,5,3,2,3,2,NA,NA,NA,NA,NA,0,0,0,0,0,3,5,3,2,4,5,1,2,2,4,4,1,4,3,3,5,2,3,1,3,4,3,3,4,5,3,2,3,4,4,4,3,4,5,4,5,4,5,5,4,3,3,3,2,4,2,4,6,5,2,5,5,5,5,2,5,6,4,2,6,5,4,5,6,6,4,2,6,2,2,2,5,3,2,3,2,1,2,4,2,4,2,5,2,4,2,3,4,3,4,2,3,5,1,4,4,5,5,7,5,3,4,2,2,3,4,4,4,3,1,3,2,1,4,1,4,3,4,2,2,2,3,1,4,5,4,2,1,3,3,3,3,3,1,3,2,2,2,5,5,3,2,4,5,4,5,3,3,3,4,5,3,2,2,2,3,3,5,5,3,2,3,3,4,3,2,4,3,2,3,3,3,3,4,5,3,3,4,1
Kassel,1993,2,1,2,6,1.67,58,3,2,48,0,2,NA,1,2,36,36.3,36.15,50.01759338,8.70489502,86,5,11:21:40,1,1,2,1,NA,2,2,5,NA,1,NA,5,5,1,NA,2,8,1,NA,NA,2,1,NA,1,NA,NA,NA,NA,NA,NA,NA,NA,NA,NA,4,2,4,2,4,4,4,4,4,3,4,2,3,4,4,5,3,2,3,3,4,3,3,4,4,2,4,2,2,2,2,2,1,2,2,4,4,3,4,2,2,1,1,1,1,2,2,6,6,6,6,4,7,5,6,5,5,3,2,6,2,6,5,7,3,6,2,6,6,6,6,6,6,6,2,5,4,3,6,2,3,3,3,4,3,3,2,2,2,2,4,3,6,4,3,3,7,6,6,2,4,2,2,4,4,4,2,2,3,2,2,2,2,4,3,4,5,6,5,4,5,4,1,4,1,5,4,2,4,2,4,3,4,1,2,5,5,2,3,4,2,5,3,3,4,4,4,4,3,4,4,2,2,3,3,4,2,4,3,3,2,3,2,4,3,3,2,4,4,3,3,4,2,4,4,3,3,4,3
Oslo,1993,2,1,2,7,1.69,63,4,2,0,3,2,NA,1,2,35.6,36.7,36.15,59.91270447,10.74609375,70,-2,10:53:05,4,1,2,1,NA,4,2,5,NA,8,2,6,4,1,NA,2,8,3,8,8,2,2,8,2,Skole,Frivillighetsjobb,Familie,Annen jobb,Andre venner,7,7,2,7,7,3,4,5,5,3,3,3,4,3,2,4,5,4,3,3,4,3,2,3,3,5,2,3,2,5,3,2,2,3,2,2,4,2,3,4,3,3,4,4,4,3,1,3,3,2,2,3,5,2,3,5,7,6,2,5,4,2,3,3,1,2,3,5,3,2,5,2,6,2,3,2,3,3,2,2,2,5,4,3,2,4,2,5,4,4,4,5,5,3,3,4,1,3,3,5,3,2,3,3,4,2,3,3,2,2,2,3,2,3,1,2,2,1,3,1,3,4,2,1,2,3,3,1,1,2,5,4,4,4,2,3,2,4,1,1,4,4,2,4,1,3,2,1,3,5,5,4,3,3,5,3,3,1,1,2,2,1,4,2,2,1,3,2,3,2,2,2,5,3,4,4,4,3,3,3,2,2,4,3
Oslo,1993,2,1,1,7,1.64,64,4,2,1,1,2,NA,1,2,35.9,36.4,36.15,59.91270447,10.74609375,70,-2,09:57:42,4,1,1,1,NA,4,4,4,2,4,3,7,5,1,NA,2,8,3,1,2,1,1,NA,1,NA,NA,NA,NA,NA,NA,NA,NA,NA,NA,2,3,5,4,2,2,2,3,3,2,4,4,5,2,3,4,2,2,2,2,4,3,2,3,5,2,3,3,4,2,4,3,2,3,4,4,4,3,2,3,3,2,4,2,4,3,2,5,3,3,5,4,6,4,4,3,2,2,5,4,4,2,6,3,2,2,2,4,2,2,2,2,3,2,1,1,2,1,2,1,2,3,2,5,4,4,5,5,4,2,5,5,4,5,5,5,4,4,4,2,2,1,3,2,3,2,2,2,2,2,2,2,2,3,3,5,6,6,2,4,4,5,2,2,2,4,4,4,3,2,4,2,3,1,2,4,4,2,3,3,4,2,3,2,4,4,2,4,3,4,4,4,2,2,3,2,2,4,2,3,2,2,3,4,2,2,2,3,4,4,3,4,2,4,4,4,4,4,4
SMU,1993,1,1,1,6,1.72,64,4,2,0,0,2,NA,1,2,36.2,36.1,36.15,1.293106079,103.8558044,71,26,10:35:49,5,1,2,1,NA,4,4,5,NA,2,6,8,5,1,NA,2,8,1,NA,NA,5,1,NA,1,NA,NA,NA,NA,NA,NA,NA,NA,NA,NA,4,4,3,3,4,4,4,3,2,3,4,3,2,3,2,2,2,2,3,3,2,2,3,2,4,3,3,3,4,4,3,3,2,4,4,4,3,2,4,3,3,3,3,3,3,3,2,4,4,4,3,3,3,2,4,3,3,2,4,3,5,3,3,1,3,4,4,2,4,2,4,4,3,6,3,3,3,3,3,4,3,5,4,4,3,4,4,3,3,4,4,4,2,5,4,5,3,3,3,4,4,4,4,4,3,3,3,4,3,1,2,4,3,2,3,2,2,4,2,2,2,3,4,3,4,3,4,3,3,4,4,4,4,3,4,3,3,3,4,4,4,4,3,4,4,3,5,4,5,3,4,4,5,4,4,4,4,5,2,3,2,4,2,2,4,4,4,4,4,4,3,4,4,4,2,4,3,4,4
METU,1993,2,1,2,7,1.65,98,2,2,2,0,2,NA,1,2,36.3,36,36.15,39.91169739,32.84030151,62,5,10:15:58,3,2,2,1,NA,4,4,4,1,1,NA,2,2,1,NA,2,7,1,NA,NA,1,1,NA,1,NA,NA,NA,NA,NA,NA,NA,NA,NA,NA,4,2,2,3,3,4,1,3,2,1,2,3,3,4,4,4,4,3,3,4,4,4,4,4,4,4,4,4,4,2,4,4,4,4,3,4,4,4,4,4,4,4,4,4,4,4,4,6,5,5,6,6,6,6,6,6,6,6,4,4,6,5,7,6,4,4,4,6,4,6,5,6,3,5,3,3,5,3,5,3,3,2,4,4,2,4,2,2,3,3,4,4,7,6,6,6,7,7,7,2,3,3,2,2,2,4,2,3,3,2,2,4,2,4,2,4,4,7,4,4,4,4,1,1,4,4,2,3,2,3,4,4,4,2,4,4,4,4,3,5,4,4,4,3,4,4,4,5,2,3,3,1,1,4,2,4,2,4,4,4,2,4,4,4,4,4,3,3,3,4,4,4,2,4,4,4,4,1,5
VCU,1993,2,3,1,1,1.5494,60,3,2,0,0,2,NA,1,2,36.27777778,36.05555556,36.16666667,37.55380249,-77.46029663,84,13.88888889,09:49:46,5,1,1,1,NA,4,4,4,1,5,3,8,8,1,NA,2,8,1,NA,NA,8,2,3,1,NA,NA,NA,NA,NA,NA,NA,NA,NA,NA,4,4,3,2,4,4,3,1,2,2,4,4,1,2,2,1,2,2,2,1,2,2,2,2,4,2,1,2,1,2,1,1,2,2,1,2,3,2,3,3,2,2,2,2,2,2,2,1,6,2,3,2,2,2,2,3,2,2,2,2,3,5,2,6,2,2,2,2,2,2,2,2,1,2,2,2,2,2,4,2,2,2,2,4,4,4,4,5,4,4,4,4,3,2,3,4,2,2,3,2,2,4,3,2,4,4,2,2,2,2,2,4,3,3,1,5,5,4,2,2,2,2,3,3,4,4,2,2,2,4,2,4,4,5,3,4,2,3,3,2,3,5,2,2,5,5,4,4,4,4,4,4,2,2,4,2,1,1,2,5,4,2,2,4,2,4,3,4,2,3,4,4,4,4,2,4,2,4,2
METU,1993,2,1,2,7,1.72,80,4,2,6,0,1,7,1,2,36.2,36.2,36.2,39.91169739,32.84030151,71,8,11:17:30,3,2,2,1,NA,2,2,5,NA,3,3,2,2,1,NA,2,4,1,NA,NA,1,1,NA,2,FUTSAL TAKIMI,NA,NA,NA,NA,5,NA,NA,NA,NA,4,3,2,5,2,4,2,2,3,4,3,4,4,3,3,2,4,3,3,2,2,4,2,4,3,2,3,2,2,1,2,3,3,2,2,2,4,4,4,4,4,2,2,2,2,3,4,3,2,5,4,4,2,2,3,2,2,2,2,4,1,2,3,1,2,3,6,6,7,5,5,6,6,5,3,3,5,2,5,6,6,2,3,4,5,4,4,4,4,3,4,4,4,6,6,5,4,4,4,2,4,1,4,4,3,4,4,4,3,4,2,3,4,4,2,3,5,3,3,2,4,4,2,4,2,5,4,4,2,3,5,4,3,2,2,4,5,2,4,4,2,4,5,5,4,5,5,4,4,4,4,4,1,1,3,3,4,4,2,4,4,3,4,4,2,4,2,3,2,4,2,4,3,4,4,3,4,2,4
METU,1993,1,1,2,5,NA,65,2,1,0,0,1,25,1,2,36.2,36.2,36.2,39.91169739,32.84030151,62,5,10:24:52,3,2,2,1,NA,4,4,5,NA,5,3,7,7,1,NA,2,1,1,NA,NA,1,1,NA,1,NA,NA,NA,NA,NA,NA,NA,NA,NA,NA,1,2,1,1,1,3,1,1,1,2,3,1,4,4,4,5,3,3,2,3,4,4,3,5,5,4,3,2,3,1,3,4,2,3,1,2,4,4,4,4,2,1,1,1,1,3,1,6,6,6,6,6,6,6,6,6,6,6,6,4,2,6,5,5,4,5,5,6,5,6,3,6,5,5,3,3,6,2,5,5,5,6,5,3,2,3,2,2,4,5,4,4,7,5,4,5,7,7,7,4,5,3,4,5,4,4,4,4,5,5,3,1,3,1,1,5,4,5,2,4,2,2,2,2,4,4,3,3,2,4,4,4,3,2,5,5,4,3,5,2,2,2,4,3,4,4,4,3,2,2,4,2,2,4,2,5,1,3,2,3,2,4,4,4,4,1,3,3,2,3,2,3,1,4,3,3,4,2,1
Tsinghua,1993,2,1,2,7,1.53,46,2,2,0,0,2,0,1,2,35.9,36.5,36.2,NA,NA,78,17,11:04:42,7,3,2,1,0,4,4,5,0,3,2,4,4,2,2,2,8,2,1,3,1,2,1,2,¿ÆÑÐÐ­»á,´ó´´ÍÅ¶Ó,NA,NA,NA,4,6,0,0,0,3,4,4,4,4,3,1,3,3,3,4,2,4,2,2,3,2,2,2,3,2,3,3,2,4,3,3,4,4,1,4,2,2,3,3,4,4,4,2,3,2,2,4,2,2,2,4,5,4,4,5,4,4,5,4,4,4,4,4,4,3,4,4,5,4,4,2,4,4,4,4,4,4,4,4,3,4,4,4,4,4,4,4,4,4,4,4,4,4,3,3,4,3,3,3,5,4,4,4,3,3,3,3,3,3,4,2,3,3,4,3,3,2,4,2,4,3,5,3,3,1,3,3,3,4,4,2,3,3,3,3,3,4,2,2,4,4,2,2,3,3,3,3,3,4,3,3,4,3,3,3,3,3,3,3,3,3,3,4,4,2,3,3,3,3,3,3,3,3,3,3,3,3,3,3,3,3,3,3
Bamberg,1993,2,1,2,7,1.63,52,3,2,0,0,2,NA,1,2,36.1,36.3,36.2,48.28329468,11.8500061,78,6,10:14:03,1,1,2,1,NA,4,4,5,NA,3,3,6,6,1,NA,2,8,1,NA,NA,1,2,1,1,NA,NA,NA,NA,NA,NA,NA,NA,NA,NA,3,3,3,4,2,2,4,4,3,5,4,2,4,3,3,3,3,3,3,2,3,2,3,2,3,2,2,4,4,3,4,3,2,4,2,4,4,3,4,4,4,2,3,3,3,2,4,5,5,5,3,6,5,3,6,5,5,4,4,4,2,5,5,2,3,5,2,5,2,5,5,5,2,3,2,4,2,3,5,5,4,3,3,5,5,4,5,5,4,2,4,4,5,4,5,3,4,5,5,4,4,1,3,2,4,4,4,2,2,2,3,2,1,4,2,4,6,4,4,4,5,3,3,3,2,4,4,3,5,4,3,2,3,1,3,4,4,2,3,4,3,4,3,4,4,4,4,3,3,4,3,4,2,2,2,3,4,5,3,3,2,3,2,2,3,3,2,4,4,3,4,4,2,5,3,4,4,2,4
METU,1993,1,1,1,2,1.84,72,4,2,0,0,2,NA,1,2,35.5,37,36.25,39.91169739,32.84030151,71,8,11:08:09,3,2,2,1,NA,4,4,4,1,3,1,6,4,1,NA,2,4,1,NA,NA,1,1,NA,1,NA,NA,NA,NA,NA,NA,NA,NA,NA,NA,2,4,2,4,2,3,3,4,1,2,4,2,3,2,3,3,2,3,2,2,2,2,2,4,4,3,2,3,4,4,3,4,3,2,2,4,4,4,4,4,4,4,4,4,4,4,4,6,2,2,4,6,2,2,5,4,2,5,2,2,2,2,3,2,2,2,2,4,3,6,4,2,3,2,2,3,2,2,2,2,2,2,3,5,5,5,5,5,5,4,5,5,6,6,6,6,6,6,6,2,2,2,2,3,4,3,2,2,2,3,4,2,4,2,2,4,7,6,2,2,3,4,3,3,4,4,4,3,3,3,3,3,4,2,2,3,4,3,3,2,3,4,4,4,3,4,4,4,4,4,4,4,2,2,3,2,4,4,3,2,3,4,3,4,3,4,2,4,3,4,4,3,2,3,4,2,3,4,2
SMU,1993,1,1,1,3,1.68,65,4,2,2,3,2,NA,2,2,36.2,36.3,36.25,1.293106079,103.8558044,70,27,10:23:33,5,1,2,1,NA,4,4,2,2,3,2,7,7,2,1,2,8,1,NA,NA,2,1,NA,1,NA,NA,NA,NA,NA,NA,NA,NA,NA,NA,4,3,4,4,2,3,2,3,2,4,3,2,3,2,3,3,2,2,2,2,2,2,2,4,5,3,1,3,4,2,4,4,2,5,2,4,4,3,2,2,2,2,2,2,2,3,2,2,3,2,2,7,2,2,3,2,2,2,2,2,6,2,2,3,1,2,1,2,1,2,2,3,1,2,1,2,1,1,2,2,2,2,2,4,4,5,4,4,5,4,4,4,4,5,5,5,4,3,4,2,3,2,2,2,3,2,2,3,2,4,2,4,1,3,2,3,4,3,2,2,2,2,2,2,4,4,1,4,4,4,2,5,3,1,4,5,4,4,2,4,4,4,2,2,5,4,4,4,2,4,4,2,1,2,1,3,1,4,4,1,2,4,4,4,4,4,2,4,4,3,4,4,2,3,4,4,4,2,1
Tsinghua,1993,1,1,2,7,1.67,54,3,2,3,2,2,0,1,2,36.1,36.4,36.25,30.58009338,114.273407,86,19,11:34:17,7,3,2,1,0,4,2,5,0,4,1,4,2,1,1,1,2,3,2,1,1,2,1,2,¸ßÖÐÍ¬Ñ§,ÉçÁª,ÊÒÓÑ,´óÑ§Í¬Ñ§,NA,2,1,3,5,NA,4,4,3,5,4,2,2,4,3,3,3,2,2,2,4,3,2,2,2,2,2,2,2,4,4,2,3,4,4,3,4,4,2,2,4,5,4,4,4,2,2,3,4,4,2,4,3,5,3,2,4,4,2,4,3,2,2,2,3,4,2,2,3,2,3,3,2,2,2,2,5,3,2,3,3,3,3,3,5,2,4,3,3,5,5,5,4,5,4,5,4,5,3,2,2,5,5,5,4,2,1,2,3,2,1,1,4,1,2,1,4,2,1,4,2,3,2,4,2,2,2,2,2,2,3,4,1,4,3,2,5,4,3,2,2,2,5,3,4,4,2,2,4,4,4,3,2,4,3,3,4,4,3,3,3,1,4,4,2,1,4,4,4,4,4,1,4,3,4,4,3,4,2,3,4,3,4,2,2
METU,1993,2,3,2,3,1.57,54,3,2,0,0,2,NA,1,2,36.3,36.3,36.3,39.91169739,32.84030151,60,9,10:56:21,3,2,2,1,NA,4,4,5,NA,3,3,6,5,1,NA,2,6,3,1,2,1,1,NA,1,NA,NA,NA,NA,NA,NA,NA,NA,NA,NA,3,2,2,2,4,3,1,2,2,2,4,4,4,3,3,3,3,3,2,3,3,2,3,4,3,2,3,2,2,2,2,2,2,2,2,2,2,2,2,2,2,2,2,2,2,2,2,2,2,2,2,3,2,3,5,2,2,3,2,2,1,2,5,1,2,3,5,2,5,5,3,2,5,5,3,3,5,2,3,5,5,3,4,4,3,4,4,4,2,2,3,2,5,5,5,5,6,6,6,2,3,2,2,2,2,2,2,2,2,2,2,2,2,4,2,3,4,3,1,2,2,1,1,3,4,4,4,4,2,2,4,2,2,1,2,2,4,2,4,4,2,2,4,4,2,4,3,4,3,2,2,2,2,4,2,2,4,3,2,4,2,2,2,4,4,2,1,4,4,4,2,4,4,4,2,4,4,2,4
METU,1993,2,3,1,7,1.63,53,3,2,NA,NA,2,NA,1,2,36.3,36.3,36.3,39.91169739,32.84030151,56,4,11:12:39,3,2,1,1,NA,4,4,4,2,7,5,6,6,1,NA,2,8,1,NA,NA,1,1,NA,2,Jakuto,Biyogen,NA,NA,NA,4,5,NA,NA,NA,4,4,3,5,4,2,2,2,2,4,5,3,5,3,3,3,2,2,2,3,3,2,3,2,4,3,3,4,3,3,2,2,1,1,1,3,4,4,4,4,4,2,1,1,2,2,4,7,3,2,5,6,5,5,5,4,3,5,1,4,2,4,5,5,1,2,2,4,2,3,2,2,3,2,3,3,2,2,2,3,3,2,3,5,5,5,5,5,4,4,4,4,3,3,3,4,3,3,3,2,2,4,2,1,1,2,2,2,1,1,1,1,2,1,2,5,6,5,2,5,2,5,4,1,4,4,1,3,4,4,1,5,5,2,3,5,5,4,3,2,3,4,4,4,4,4,4,4,4,3,4,4,2,2,3,2,2,5,4,4,1,4,3,4,3,4,3,4,3,4,4,4,3,2,4,2,2,1,4
SMU,1993,1,1,2,6,1.73,55,3,2,25,0,2,NA,1,2,36.4,36.2,36.3,1.293106079,103.8558044,70,26,09:38:12,5,1,2,1,NA,4,4,1,NA,3,1,5,3,1,NA,2,8,1,NA,NA,1,1,NA,1,NA,NA,NA,NA,NA,NA,NA,NA,NA,NA,4,4,2,4,4,4,4,3,2,4,4,4,2,3,4,4,2,2,3,2,4,2,2,4,4,2,4,2,4,2,2,2,2,2,2,4,2,2,2,2,2,2,2,2,2,2,2,4,4,4,4,4,4,4,4,4,4,4,4,4,4,4,4,4,4,4,4,4,4,4,4,4,4,4,4,4,4,4,4,4,4,4,4,4,3,4,4,4,4,4,4,4,3,3,3,3,2,2,2,3,3,3,3,2,2,3,3,3,4,2,3,3,2,3,3,2,2,2,2,2,3,2,1,4,5,2,1,1,3,3,4,4,3,1,2,5,5,3,2,1,2,2,4,3,4,3,3,3,2,4,3,3,3,4,3,2,2,3,2,2,2,4,4,4,4,2,2,4,4,3,3,3,4,3,3,3,2,2,2
SMU,1993,1,1,2,4,1.7,63,3,2,0,0,2,NA,1,2,36.2,36.4,36.3,1.293106079,103.8558044,71,26,10:11:42,5,1,3,1,NA,4,4,5,NA,6,1,8,5,1,NA,2,8,1,NA,NA,2,1,NA,1,NA,NA,NA,NA,NA,NA,NA,NA,NA,NA,3,5,5,4,4,1,5,1,3,5,5,5,5,2,3,3,1,2,1,1,2,1,1,3,4,2,2,2,4,2,3,2,2,2,3,2,2,2,2,2,2,2,2,2,2,2,2,2,2,2,2,2,2,2,5,6,2,6,2,6,2,2,2,2,2,2,6,2,3,2,2,2,3,6,3,3,6,2,2,3,6,6,3,4,4,4,4,4,5,4,4,4,4,6,5,4,5,4,3,2,2,1,2,1,1,2,2,3,2,2,2,2,2,3,2,5,6,3,2,3,2,2,3,3,4,3,1,5,3,3,4,4,3,3,3,4,4,4,3,3,4,4,5,3,4,4,3,4,4,4,4,4,2,2,2,2,2,2,4,4,2,4,3,3,4,3,4,4,4,4,4,4,4,3,3,3,3,2,3
Tsinghua,1993,2,1,2,7,1.52,50,3,2,0,0,2,0,1,2,36,36.6,36.3,30.58009338,114.273407,61,10,10:30:11,7,3,2,1,0,4,4,5,0,5,3,7,4,2,3,2,5,2,1,5,3,2,1,2,Ö¾Ô¸ÕßÐ­»á,NA,NA,NA,NA,2,NA,NA,NA,NA,3,3,4,4,5,5,1,3,5,4,4,4,3,3,3,4,2,2,2,2,3,3,5,2,4,2,2,2,4,1,5,1,1,3,3,4,4,3,3,4,3,2,2,2,2,2,2,4,4,4,6,6,5,4,6,4,5,3,4,4,4,4,4,6,3,2,2,2,4,3,3,4,3,3,3,3,3,2,5,2,3,2,3,5,5,5,4,5,5,5,5,5,5,2,4,7,6,5,5,2,2,3,3,2,3,4,2,4,2,2,2,3,1,4,2,3,2,4,2,2,2,3,2,4,5,5,1,3,3,3,4,4,4,2,3,4,3,2,3,4,2,2,4,4,4,3,3,5,5,3,4,4,1,1,1,2,4,4,3,2,2,4,2,4,4,3,3,5,3,2,2,2,2,3,4,3,3,4,3
SMU,1993,1,1,2,7,1.7,60,5,2,1,0,2,NA,1,2,36.2,36.4,36.3,1.293106079,103.8558044,70,26,10:22:38,5,1,2,1,NA,4,4,5,NA,3,2,4,4,2,1,2,8,1,NA,NA,1,1,NA,1,NA,NA,NA,NA,NA,NA,NA,NA,NA,NA,2,2,2,4,2,2,1,1,2,2,2,2,5,2,2,1,2,2,2,2,2,2,1,1,2,2,2,4,5,4,4,4,4,4,4,4,5,2,5,4,4,2,2,2,1,4,5,6,6,6,3,3,3,3,6,5,5,3,5,5,2,7,3,3,1,3,2,5,5,3,3,2,5,5,3,2,5,2,3,3,3,3,3,4,4,5,5,4,2,2,4,2,4,6,6,6,4,4,4,2,2,1,2,1,2,2,4,4,2,1,1,4,1,4,2,3,3,1,1,2,1,1,1,4,4,4,2,4,4,5,5,4,2,1,4,5,5,4,2,2,2,1,4,4,4,4,4,4,2,2,2,2,4,4,2,1,1,2,1,2,2,2,2,4,1,2,2,2,4,2,2,2,4,2,2,2,2,1,4
VCU,1993,2,1,1,7,1.7526,113.6363636,3,2,5,0,2,NA,1,2,36.33333333,36.27777778,36.30555556,37.51600647,-77.50050354,88,10,10:21:10,5,1,2,1,NA,4,2,4,2,4,1,8,6,2,1,2,6,3,1,5,5,1,NA,2,PSP,NA,NA,NA,NA,80,NA,NA,NA,NA,3,3,3,4,3,2,2,2,4,3,4,3,4,2,2,3,3,3,2,3,2,3,3,3,4,2,3,3,4,4,4,4,3,4,3,4,4,4,4,4,3,4,3,4,3,4,4,1,5,2,4,4,2,2,2,3,2,4,1,1,2,1,2,5,1,2,1,6,1,1,2,2,1,6,1,1,1,1,1,4,3,1,1,5,5,5,5,5,4,2,5,5,7,5,5,4,4,4,4,2,1,2,2,2,2,2,2,2,2,2,2,3,2,2,2,4,6,4,5,4,4,1,2,4,4,4,3,2,4,4,3,4,4,2,4,4,4,4,2,4,3,4,5,3,4,4,3,5,4,4,4,4,2,2,2,2,3,4,3,2,2,4,2,3,3,3,4,4,4,4,4,2,4,4,2,2,2,2,2
VCU,1993,2,1,1,6,1.5748,65.90909091,4,2,4,0,2,NA,1,2,36.5,36.16666667,36.33333333,37.50230408,-77.56929779,81,14.44444444,09:39:36,5,1,2,1,NA,4,3,3,1,3,2,6,5,1,NA,2,3,3,1,8,2,1,NA,1,NA,NA,NA,NA,NA,NA,NA,NA,NA,NA,3,2,4,4,3,3,2,1,2,3,3,2,2,4,4,5,3,3,4,3,4,4,3,4,4,3,4,2,3,2,4,2,2,3,4,3,4,2,4,4,2,2,3,2,2,2,2,5,3,5,4,5,2,2,3,5,2,3,4,4,4,4,2,5,2,4,6,3,6,2,5,3,2,6,3,3,2,3,3,4,2,2,3,4,4,4,4,4,4,3,3,3,2,4,4,3,3,3,3,4,4,3,4,4,3,4,4,3,4,4,3,3,3,3,3,4,3,6,3,2,3,1,2,2,4,4,2,3,2,3,3,5,4,2,4,5,5,3,3,4,3,3,4,4,3,4,2,4,4,3,4,4,2,2,2,1,5,4,4,2,3,4,5,3,2,2,3,3,4,3,4,2,3,4,4,3,2,5,3
SMU,1993,1,1,2,6,1.64,56,4,2,0,0,2,NA,1,2,36.4,36.3,36.35,1.293106079,103.8558044,79,26,10:23:40,5,1,2,1,NA,4,4,5,NA,2,2,4,4,2,8,2,8,1,NA,NA,5,2,3,2,Church group,school project group,Secondry school friends group,NA,NA,7,6,3,NA,NA,2,3,4,5,3,4,3,1,4,4,2,4,4,3,3,3,3,3,3,3,3,3,3,3,3,3,3,3,3,4,2,2,2,3,3,2,4,3,4,3,3,3,1,2,1,2,3,4,5,4,5,4,5,4,5,5,4,6,4,5,4,4,4,4,2,4,4,4,4,4,4,4,4,4,4,4,5,4,4,3,3,3,4,4,4,4,4,4,4,4,4,4,3,3,3,3,3,3,3,3,3,3,3,3,3,3,3,3,3,3,3,3,3,3,3,3,3,4,3,3,2,3,2,4,3,4,3,4,2,3,3,2,2,2,2,2,4,3,4,3,3,4,4,2,4,4,2,3,3,3,4,3,2,2,3,3,2,3,2,3,3,3,2,3,2,3,2,4,4,4,3,3,3,2,2,4,3,4,3
SMU,1993,1,1,1,4,1.76,63,2,2,0,0,1,5,1,2,36.3,36.4,36.35,1.293106079,103.8558044,70,26,10:30:54,5,1,2,1,NA,4,2,5,NA,3,1,5,3,1,NA,2,8,1,NA,NA,1,1,NA,1,NA,NA,NA,NA,NA,NA,NA,NA,NA,NA,3,2,3,4,2,3,2,2,2,1,4,2,2,3,3,3,3,2,2,3,4,3,3,4,5,3,4,3,4,3,3,3,2,3,2,4,2,2,3,2,2,2,2,2,2,2,2,4,3,4,3,4,4,4,4,4,3,4,4,4,3,3,3,5,3,5,4,5,4,5,5,4,4,4,4,4,4,4,4,4,5,5,4,5,5,5,5,5,5,5,5,5,3,5,4,4,4,4,4,3,4,2,4,3,3,3,4,4,3,3,3,4,3,4,3,3,3,1,1,1,1,1,3,3,4,3,2,4,4,3,4,4,4,2,3,4,4,3,3,2,2,2,4,3,4,3,3,3,3,3,3,3,3,2,3,2,2,4,4,3,3,4,4,3,4,3,2,3,4,3,2,3,3,3,2,2,2,1,2
METU,1993,1,1,2,7,1.83,70,3,1,10,0,2,NA,2,2,36.3,36.4,36.35,39.91169739,32.84030151,62,5,11:05:21,3,2,2,1,NA,3,3,5,NA,8,7,7,7,1,NA,2,8,1,NA,NA,1,1,NA,1,NA,NA,NA,NA,NA,NA,NA,NA,NA,NA,3,4,4,3,2,3,3,2,2,3,4,2,2,3,3,4,3,3,3,3,3,3,3,3,3,3,3,4,3,3,3,4,3,4,4,4,3,4,4,3,4,2,3,3,3,3,4,6,5,3,4,5,7,4,5,5,5,3,3,5,5,5,5,2,4,2,3,5,4,1,3,1,4,4,2,2,5,2,3,6,5,2,5,5,4,4,3,4,5,4,4,4,3,6,6,6,5,5,5,4,3,1,4,1,3,4,4,4,3,3,1,1,3,2,1,4,2,4,2,4,2,2,5,4,4,4,2,4,4,3,4,4,4,2,2,4,3,3,3,4,4,4,3,2,4,4,4,4,4,4,4,4,3,3,2,2,3,3,3,3,2,4,3,4,3,4,2,4,2,4,4,4,5,4,2,2,3,2,4
VCU,1993,1,1,2,4,1.8034,86.36363636,2,2,12,0,1,2,1,2,36.27777778,36.44444444,36.36111111,37.44490051,-77.2983017,81,14.44444444,10:35:31,5,1,1,1,NA,2,2,5,NA,1,NA,2,2,1,NA,2,1,1,NA,NA,1,1,NA,1,NA,NA,NA,NA,NA,NA,NA,NA,NA,NA,3,1,1,2,2,2,3,3,2,4,4,2,1,4,4,5,2,3,3,4,5,3,3,3,5,2,4,4,5,2,5,2,2,4,5,4,1,3,2,2,1,3,4,4,2,4,3,7,6,7,7,7,7,7,6,7,6,7,5,6,5,6,7,7,3,6,5,6,4,6,3,1,5,5,5,5,6,3,2,5,5,2,6,1,1,2,1,1,1,2,1,1,5,7,7,7,4,4,5,2,2,2,3,1,3,2,1,3,2,2,2,2,5,4,4,2,2,2,2,2,3,2,4,4,5,3,1,2,4,4,2,5,3,2,4,4,2,5,2,4,2,5,4,5,2,5,5,3,1,1,2,1,2,4,3,4,2,4,4,2,2,2,4,2,3,2,2,4,4,4,4,2,5,2,2,1,2,1,4
VCU,1993,2,1,2,7,1.651,50,3,1,14,6,2,NA,1,2,36.5,36.22222222,36.36111111,37.55220032,-77.45819855,64,10.55555556,09:58:37,5,1,2,1,NA,4,4,5,NA,4,3,2,2,1,NA,2,4,3,1,8,1,1,NA,1,NA,NA,NA,NA,NA,NA,NA,NA,NA,NA,4,2,2,3,4,2,1,2,2,1,2,2,4,3,3,4,3,3,3,3,4,3,3,3,5,2,4,4,4,4,4,4,4,4,2,4,4,4,4,4,4,4,4,4,2,2,4,7,7,5,7,6,7,7,7,7,2,6,6,6,2,6,6,7,2,2,2,6,2,2,3,2,2,2,2,2,3,2,2,2,6,2,3,4,4,4,4,4,2,2,4,4,3,4,2,2,3,2,3,2,2,1,2,2,1,2,2,2,2,2,1,2,1,3,2,4,5,4,3,2,2,2,4,5,4,4,1,3,1,3,4,5,4,1,5,4,4,4,5,4,1,4,4,2,4,5,4,4,3,4,3,3,3,4,3,2,5,4,3,2,4,4,4,3,4,3,1,2,5,4,4,3,2,5,4,4,4,1,3
Oslo,1993,1,1,2,4,1.7,60,4,2,1,0,1,3,2,2,36.5,36.3,36.4,59.91670227,10.75,70,-7,10:51:28,4,1,2,1,NA,4,4,5,NA,1,NA,3,2,1,NA,1,NA,1,NA,NA,1,1,NA,2,filmcrew,0,0,0,0,3,0,0,0,0,3,3,4,4,2,5,4,4,5,4,4,3,2,3,2,4,2,2,1,3,5,1,3,2,5,2,3,3,2,1,1,1,1,1,2,4,2,3,2,4,2,1,1,2,2,1,2,4,4,4,4,4,6,4,7,4,4,4,4,4,3,6,4,7,4,4,4,6,4,3,4,2,4,4,4,4,4,4,6,4,4,4,4,5,4,4,5,5,3,2,4,3,6,6,6,6,6,3,4,2,3,1,2,2,2,2,2,1,4,1,2,3,1,1,1,3,5,4,1,1,2,3,2,4,3,5,4,4,2,3,4,2,2,1,3,4,4,2,4,4,2,4,2,1,4,4,2,3,4,3,3,4,3,3,3,4,1,4,2,1,1,1,1,5,2,1,1,4,4,1,5,5,2,3,4,3,4,3,4
Tsinghua,1993,2,1,1,7,1.62,51.5,4,2,3,1,2,0,1,2,36.4,36.4,36.4,30.58009338,114.273407,71,14,11:17:52,7,3,2,1,0,4,4,5,0,4,2,4,4,1,1,2,3,1,1,2,1,2,1,2,½¡Éí·¿,Ñ§Éú,NA,NA,NA,1,3,NA,NA,NA,4,5,4,4,4,3,5,2,2,4,4,4,4,3,3,2,2,3,2,2,4,3,4,3,4,4,1,2,2,2,2,2,2,2,2,3,4,3,4,3,4,2,2,2,2,2,4,2,2,2,2,4,4,3,6,2,5,3,3,2,2,2,2,3,2,4,4,2,4,2,2,2,2,2,2,3,4,2,2,3,3,4,3,5,5,5,5,5,5,5,5,5,6,2,2,5,5,5,5,2,2,2,2,2,3,2,2,2,2,3,2,3,2,2,2,3,3,2,2,2,2,2,2,2,4,4,2,2,2,2,2,3,2,2,4,2,2,2,2,4,2,2,2,2,3,2,3,4,4,3,4,4,2,2,2,2,2,4,4,3,2,4,4,4,3,2,2,4,2,4,3,4,3,3,3,3,4,4,2
SMU,1993,2,1,1,6,1.66,67,3,2,0,0,2,NA,1,2,36.3,36.5,36.4,1.293106079,103.8558044,70,27,10:45:16,5,1,1,1,NA,4,4,5,NA,5,2,5,5,1,NA,2,6,1,NA,NA,1,1,NA,1,NA,NA,NA,NA,NA,NA,NA,NA,NA,NA,3,3,1,4,4,4,2,2,1,1,2,5,4,3,3,4,3,3,2,3,5,4,3,3,4,2,3,2,4,1,5,3,2,1,1,1,1,1,1,1,1,1,1,1,1,1,1,1,1,1,1,1,1,1,1,1,1,1,1,6,1,1,5,1,1,1,1,1,1,1,1,1,1,1,1,1,1,1,1,1,1,1,1,5,5,5,5,5,5,5,5,5,3,3,5,5,4,3,3,3,4,3,4,1,4,4,4,1,3,2,3,4,1,3,2,5,6,6,6,4,2,4,1,5,5,5,3,2,1,4,4,4,5,1,4,5,5,5,1,5,4,4,4,5,4,4,4,5,3,3,5,3,3,4,3,1,1,4,3,2,4,3,5,5,3,1,3,3,5,3,1,3,4,2,4,1,1,1,5
Tsinghua,1993,1,1,2,1,1.7,60,4,2,1.3,0,2,0,1,2,36.3,36.5,36.4,30.58009338,114.273407,74,16,11:11:01,7,3,2,1,0,4,4,5,0,4,3,4,4,1,1,2,5,1,1,1,4,2,1,2,NA,NA,NA,NA,NA,NA,NA,NA,NA,NA,4,3,3,5,4,5,2,4,2,3,4,4,3,2,1,1,2,2,2,2,1,4,3,1,5,2,2,3,4,1,3,1,2,2,2,4,4,2,2,2,1,1,1,1,1,1,1,7,4,5,5,7,2,5,5,4,5,2,2,3,5,5,5,5,2,4,2,2,1,1,3,2,2,3,3,2,2,2,4,2,2,2,4,5,4,4,4,5,5,4,4,4,5,4,4,5,5,5,5,1,2,1,2,2,1,2,2,3,2,2,3,3,1,4,2,2,2,3,2,2,2,2,4,4,4,4,1,2,3,3,2,4,3,2,3,5,2,3,1,4,3,2,3,5,4,4,3,4,4,4,4,3,3,2,2,2,4,4,3,4,3,3,3,3,4,3,2,3,4,3,3,3,3,3,4,3,4,3,1
METU,1993,2,1,1,7,1.61,46,3,2,NA,0,2,NA,1,2,35.8,37,36.4,39.91169739,32.84030151,71,7,11:00:12,3,2,2,1,NA,4,4,4,2,2,1,7,4,1,NA,2,3,1,NA,NA,2,1,NA,1,NA,NA,NA,NA,NA,NA,NA,NA,NA,NA,3,4,1,5,3,2,1,2,2,1,3,4,3,4,3,4,4,4,4,3,3,4,5,3,4,2,4,2,4,4,4,5,1,4,1,5,5,3,5,1,3,1,1,1,1,1,5,7,5,3,5,4,6,3,5,5,3,6,1,2,2,5,5,5,2,1,1,1,1,1,1,1,1,1,1,1,1,1,1,1,1,1,1,5,5,5,5,5,4,1,4,5,3,5,6,6,6,4,5,2,3,1,3,4,2,4,2,1,4,1,3,4,5,2,1,3,2,2,1,2,2,1,2,2,1,5,5,5,5,5,5,1,1,1,1,2,2,1,1,5,1,5,2,2,3,5,5,5,5,5,5,5,1,1,1,1,5,4,5,1,3,4,4,2,5,5,1,2,4,3,3,5,1,3,5,3,5,1,5
Tsinghua,1993,2,1,2,7,1.6,48,2,2,0,0,2,0,1,2,36.3,36.5,36.4,30.66670227,104.0667114,69,8,10:46:10,7,3,2,1,0,4,4,5,0,5,3,5,3,1,1,2,3,1,1,1,1,2,1,2,NA,NA,NA,NA,NA,NA,NA,NA,NA,NA,3,3,2,4,4,2,2,2,2,4,3,2,2,3,4,3,3,4,3,4,3,4,4,4,2,3,3,2,4,2,4,4,3,4,4,4,4,2,2,4,4,2,4,2,2,4,2,5,3,5,5,6,5,4,5,5,3,3,2,2,2,2,5,5,2,3,2,6,4,3,3,3,5,2,2,2,5,2,5,3,6,6,5,4,3,4,4,4,4,4,4,4,3,2,4,5,4,3,4,4,4,4,4,4,4,4,2,2,4,2,4,4,2,3,2,4,4,5,4,4,2,2,2,4,3,4,3,2,2,2,2,2,2,2,4,4,2,2,4,3,2,2,4,4,2,2,4,4,3,2,4,3,2,3,2,2,4,4,2,2,2,4,4,3,4,3,4,4,4,2,2,2,2,3,4,2,3,2,4
VCU,1993,2,1,1,7,1.7018,66.81818182,4,2,NA,0,2,NA,1,2,36.44444444,36.44444444,36.44444444,37.19520569,-77.45970154,94,13.33333333,09:46:25,5,1,1,1,NA,4,4,4,2,5,3,6,5,2,5,2,3,3,1,6,1,1,NA,1,NA,NA,NA,NA,NA,NA,NA,NA,NA,NA,4,3,5,5,5,4,4,4,5,5,5,5,5,2,2,2,2,1,1,1,2,2,2,2,4,2,1,2,4,1,5,1,1,4,4,5,4,4,1,4,4,2,2,2,1,1,4,1,1,1,1,1,2,1,1,1,1,7,1,1,1,1,1,1,1,1,1,6,1,1,1,1,1,1,2,2,2,1,1,6,6,1,1,5,5,5,5,5,5,4,5,5,6,4,5,6,6,6,5,1,1,2,1,1,2,1,1,1,1,1,1,1,1,3,1,3,3,7,3,4,4,3,2,2,4,4,1,2,5,4,4,5,5,1,4,5,3,5,5,1,4,4,3,1,5,5,5,2,4,5,2,1,1,4,1,4,4,5,5,1,1,5,4,4,4,4,5,1,4,4,3,3,2,4,4,5,2,1,5
Oxford,1993,1,1,2,6,1.6764,90,3,3,0,0,1,1,1,1,36.3,36.6,36.45,51.75,-1.25,71,1.666666667,09:10:58,5,1,2,1,NA,4,2,5,NA,3,3,8,4,1,NA,1,NA,1,NA,NA,2,2,2,1,NA,NA,NA,NA,NA,NA,NA,NA,NA,NA,2,1,1,2,1,2,1,1,1,2,1,3,4,5,5,2,4,4,4,3,4,3,5,4,4,1,5,2,2,1,4,2,1,2,1,4,2,4,4,4,5,2,1,4,4,1,5,6,5,3,6,7,5,6,3,5,6,1,7,7,6,7,6,5,2,2,2,1,3,6,6,2,5,6,6,2,1,5,7,2,1,1,6,5,5,1,1,4,5,1,2,4,6,7,3,4,6,7,3,5,5,5,4,4,5,5,4,2,2,1,1,4,4,4,1,4,6,7,1,3,2,4,4,4,2,5,5,2,2,3,4,4,5,5,4,4,2,4,2,1,2,5,5,3,4,4,4,5,1,4,2,1,4,3,4,4,2,4,1,4,5,2,1,5,3,2,4,4,5,3,2,4,5,5,2,1,2,1,2
Tsinghua,1993,1,1,1,7,1.6,62,3,2,12,0,2,0,1,2,36.4,36.5,36.45,30.58009338,114.273407,72,14,11:30:34,7,3,1,1,0,4,1,4,1,4,3,3,3,1,1,2,3,1,1,1,1,2,1,2,na,na,na,na,na,NA,NA,NA,NA,NA,4,2,2,3,4,4,2,3,2,4,3,2,2,2,2,2,2,3,4,4,1,4,4,1,2,3,1,4,4,3,4,2,2,2,2,2,4,4,4,4,2,2,2,2,3,2,4,5,5,3,4,7,2,5,3,4,5,5,2,1,2,2,5,3,2,3,2,2,2,1,1,5,1,2,3,2,3,2,4,2,3,2,2,4,4,3,3,4,4,3,4,4,2,2,4,2,2,2,1,2,2,3,3,4,3,2,2,3,2,2,2,2,2,2,2,3,3,5,3,3,1,2,2,4,4,4,2,2,3,2,4,4,2,2,3,2,2,2,4,3,2,2,3,4,3,2,2,4,4,2,3,3,2,2,3,2,2,4,3,4,2,2,4,3,4,2,3,3,2,3,3,2,2,4,4,3,4,2,4
Tsinghua,1993,1,1,2,7,1.74,62,3,2,1,0,2,0,1,2,36.3,36.6,36.45,39.92889404,116.3883057,21,11,10:36:29,7,3,2,1,0,4,2,5,0,3,2,4,4,1,1,2,5,1,1,1,1,2,1,1,ÓðÃ«Çò¾ãÀÖ²¿,NA,NA,NA,NA,3,NA,NA,NA,NA,3,4,3,4,4,4,3,4,1,4,5,2,4,5,5,4,2,3,3,4,4,3,4,4,4,2,1,3,4,2,4,4,3,2,4,4,4,4,3,4,2,3,2,2,3,3,2,2,3,3,4,2,5,2,5,3,6,5,3,2,2,3,6,5,2,3,2,2,2,4,4,2,2,2,2,2,6,2,2,2,2,1,4,4,3,5,3,3,4,2,2,3,3,2,2,6,5,2,2,4,3,3,3,4,3,4,3,2,2,2,1,2,2,5,3,3,2,5,2,2,3,2,2,2,5,3,1,2,2,4,3,5,3,2,4,3,3,2,3,4,2,2,4,4,3,4,2,5,3,3,5,3,2,3,2,4,3,4,4,3,2,4,3,4,3,2,2,4,3,4,4,4,2,2,4,3,4,3,3
Tsinghua,1993,1,1,2,7,1.67,56,2,2,3,5,2,0,1,2,36.1,36.8,36.45,30.66670227,104.0667114,89,16,11:57:30,7,3,2,1,0,4,1,5,0,3,1,1,1,1,1,1,1,1,1,1,1,2,1,1,¼ÒÍ¥,ÇÞÊÒ,°à¼¶,Na,Na,4,4,40,NA,NA,3,2,3,4,3,3,2,1,3,3,2,4,4,3,2,3,3,3,3,4,3,3,3,2,3,4,3,4,4,4,4,2,2,2,4,4,3,3,3,3,3,3,4,3,4,2,3,4,4,4,4,4,4,4,4,4,4,4,4,4,4,4,4,4,4,4,4,4,4,4,4,4,4,4,4,4,4,4,4,4,4,4,4,4,4,4,4,4,4,4,4,4,7,1,4,6,6,6,5,3,4,3,4,3,3,4,4,3,3,3,3,4,2,3,2,2,2,4,2,2,2,2,1,4,4,4,2,2,3,3,2,4,2,3,2,2,2,2,4,3,2,2,4,4,2,2,2,4,2,2,4,4,4,4,2,2,2,4,2,2,2,4,4,2,4,2,2,4,4,2,2,4,4,2,2,4,2,2,2
Oxford,1993,2,1,2,6,1.67,68,3,2,1,1,1,1,1,2,36.4,36.5,36.45,51.75,-1.25,71,1.666666667,08:39:49,5,1,2,1,NA,4,4,5,NA,1,NA,8,6,2,6,2,8,1,NA,NA,5,1,NA,2,Oxford University Dancesport Club - beginners competitive ballroom team,Oxford University Dancesport Club - salsa team,NA,NA,NA,5,12,NA,NA,NA,2,1,2,4,1,2,1,3,2,2,5,2,2,3,4,5,1,2,3,2,3,4,2,4,5,3,2,5,5,4,5,5,3,4,5,4,5,4,5,5,4,4,4,3,5,2,5,3,2,2,6,5,2,3,5,2,2,2,4,2,5,1,2,6,1,3,2,6,2,2,4,4,3,1,2,2,3,2,4,5,5,1,3,5,4,4,5,4,2,2,4,4,6,6,7,6,7,6,6,4,4,1,3,4,3,5,5,2,4,2,2,2,2,2,2,5,6,6,4,4,5,5,1,2,1,5,2,4,3,3,4,5,3,1,3,5,5,1,5,2,4,4,4,4,5,3,5,4,4,3,4,5,2,2,3,4,5,4,5,5,2,1,2,5,1,2,1,5,5,4,3,5,1,3,5,5,4,1,1
VCU,1993,2,1,1,7,1.5748,56.81818182,3,1,5,0,2,NA,1,2,36.38888889,36.61111111,36.5,37.55769348,-77.37689972,68,10.55555556,11:07:01,5,1,2,1,NA,4,1,5,NA,3,2,1,1,1,NA,2,1,3,8,8,1,1,NA,1,NA,NA,NA,NA,NA,NA,NA,NA,NA,NA,3,3,1,3,3,2,3,2,3,2,4,5,4,3,3,4,2,3,3,3,3,3,3,3,5,3,3,3,4,1,4,1,1,2,1,4,2,3,4,2,3,1,1,2,2,4,4,5,5,5,5,4,4,4,4,6,2,5,4,1,1,5,4,4,1,4,4,6,6,4,4,5,6,6,4,3,6,4,5,5,6,4,3,5,3,4,5,3,2,4,2,1,2,3,3,4,3,2,2,2,4,2,4,2,3,3,3,4,3,3,3,2,1,4,2,1,2,1,2,2,2,2,2,4,5,4,1,3,3,2,3,5,4,3,3,4,3,3,4,3,1,3,4,4,3,4,2,4,2,3,3,3,2,3,2,2,4,2,2,3,3,4,3,3,2,1,3,4,4,2,1,1,3,3,3,1,1,2,1
Serbia,1993,2,1,1,7,1.76,68,5,2,0,0,2,NA,1,2,36.4,36.6,36.5,43.58000183,21.33389282,47,9,10:30:15,6,1,2,1,NA,4,4,4,1,2,2,4,4,1,NA,2,8,2,7,5,1,1,NA,2,Joga klub,NA,NA,NA,NA,6,NA,NA,NA,NA,5,5,5,5,5,5,4,5,5,5,5,5,4,2,4,3,2,2,1,2,4,2,1,3,5,1,2,4,4,1,4,1,1,2,1,4,5,4,4,2,4,1,4,1,2,4,4,5,1,1,1,2,2,5,2,NA,1,NA,1,5,1,1,4,5,2,3,1,7,1,1,1,1,1,1,3,1,1,NA,2,7,7,1,1,5,5,5,5,5,5,5,4,4,3,1,2,2,2,2,2,2,4,2,4,1,2,3,2,4,4,4,1,4,2,4,1,1,2,2,1,2,2,2,2,4,2,5,2,1,4,4,4,5,4,1,3,1,4,5,4,5,4,5,5,4,3,3,1,1,1,4,5,5,1,1,2,2,4,2,1,2,2,2,4,4,1,4,2,5,5,5,5,5,3,5,4,2,3,4,4
SMU,1993,2,1,2,2,1.62,50,4,2,0.5,0,2,NA,1,2,36.6,36.4,36.5,1.293106079,103.8558044,71,26,09:23:16,5,1,2,1,NA,4,4,5,NA,1,NA,4,2,1,NA,2,8,3,1,2,1,1,NA,1,NA,NA,NA,NA,NA,NA,NA,NA,NA,NA,2,2,2,2,4,3,2,3,2,2,3,4,4,4,3,3,3,3,4,3,3,3,3,3,4,3,4,2,4,4,4,3,3,4,4,4,3,3,3,3,3,3,3,4,3,4,3,5,5,5,5,4,5,5,5,5,4,5,4,4,4,6,5,6,3,5,4,4,4,4,4,4,4,6,4,3,5,3,4,4,4,5,4,4,3,4,4,4,4,4,4,4,3,4,4,4,4,4,4,3,4,3,4,3,2,4,4,4,2,3,2,3,2,4,2,1,3,6,2,2,2,2,4,5,5,2,1,3,2,2,4,5,5,2,4,4,4,4,3,4,3,3,4,4,4,4,3,4,4,3,3,3,3,3,3,2,3,4,3,3,2,3,4,3,4,3,4,3,4,3,3,3,2,4,4,3,3,1,4
METU,1993,2,2,2,7,1.71,72,2,2,2,0,2,NA,1,2,36.5,36.5,36.5,39.91169739,32.84030151,71,7,11:02:29,3,2,2,1,NA,4,4,5,NA,3,3,6,6,1,NA,2,6,3,8,3,1,2,3,2,g?n¨¹ll¨¹,NA,NA,NA,NA,5,NA,NA,NA,NA,2,3,3,5,4,4,3,5,1,2,2,4,5,3,4,4,3,2,3,3,4,3,4,5,3,3,4,4,4,3,4,4,4,4,3,4,3,4,3,4,4,3,3,3,2,4,3,6,5,6,6,7,5,2,7,6,3,7,5,5,2,7,4,6,3,6,2,4,6,6,4,4,6,3,3,3,2,2,6,6,6,4,4,4,5,5,5,5,5,5,4,4,6,7,6,5,3,4,6,2,2,1,1,2,4,4,1,3,3,1,2,2,3,4,2,5,6,5,7,4,5,3,4,2,4,1,1,1,3,4,2,5,4,2,4,3,3,4,3,5,4,2,5,3,5,5,3,3,5,3,4,4,3,1,3,4,5,5,5,4,4,4,3,4,3,2,3,4,4,4,3,3,4,4,4,4,2,4,3
Serbia,1993,2,1,1,3,1.7,61,4,2,2,0,2,NA,1,2,36.5,36.6,36.55,44.81860352,20.46809387,88,9,10:16:44,6,1,2,1,NA,4,4,5,NA,8,5,7,5,1,NA,2,8,3,8,8,2,1,NA,2,Studentska grupa,NA,NA,NA,NA,2,NA,NA,NA,NA,4,4,4,5,4,2,3,1,4,4,4,3,4,2,4,2,3,2,2,2,3,2,2,3,4,3,3,2,3,3,3,2,2,2,3,2,3,2,2,2,2,2,1,1,2,1,2,3,3,4,4,4,4,2,3,5,2,3,3,4,3,3,5,3,3,4,3,5,3,3,4,4,4,5,3,3,5,5,3,6,4,5,6,4,4,4,5,5,4,4,4,5,6,5,5,4,5,5,5,4,3,3,3,3,3,4,3,3,3,3,3,3,2,2,2,4,6,5,1,4,4,6,3,3,4,4,1,3,3,3,3,5,3,3,4,2,4,3,4,3,4,3,3,3,3,3,3,2,3,4,3,3,3,2,3,3,2,3,3,4,3,3,3,4,3,3,3,4,3,2,3,3,3,4,3,3,3,3,3
METU,1993,2,1,1,7,1.68,94,3,2,NA,NA,2,NA,1,2,36.3,36.8,36.55,NA,NA,72,2,11:11:33,3,2,2,1,NA,2,2,4,1,1,NA,4,4,1,NA,2,8,1,NA,NA,1,2,2,2,biyogen,akek,NA,NA,NA,5,7,NA,NA,NA,3,2,1,2,1,2,5,1,2,2,2,2,2,4,4,5,3,3,3,4,5,4,4,4,4,3,4,4,4,2,3,2,2,4,2,4,4,4,4,4,4,1,1,1,1,2,4,6,5,3,5,6,2,5,1,5,2,6,2,2,2,2,6,7,1,2,3,4,1,2,2,1,2,1,2,3,3,2,2,1,1,3,4,5,4,5,4,5,5,4,4,4,6,5,6,6,5,5,5,2,3,1,2,2,2,2,2,1,2,1,2,2,3,4,2,4,6,5,1,4,4,1,3,2,4,5,4,2,3,2,3,3,2,2,4,4,4,4,5,4,2,4,3,2,4,4,5,4,3,3,2,2,1,1,1,2,2,3,3,5,2,2,3,4,4,4,2,4,2,4,3,4,2,4,4,3,2,1,5
Zurich,1993,2,1,1,7,1.64,54,4,2,5,0,2,NA,1,2,36.7,36.4,36.55,46.00219727,8.977294922,68,7,10:39:10,1,1,2,1,NA,2,2,4,1,2,2,7,3,1,NA,2,6,1,NA,NA,1,1,NA,1,NA,NA,NA,NA,NA,NA,NA,NA,NA,NA,3,3,3,4,3,4,3,4,4,3,5,4,5,2,4,2,3,2,3,2,2,2,2,3,5,2,3,4,4,2,4,4,2,2,4,5,5,4,4,4,4,1,1,1,2,2,4,2,2,1,1,1,5,1,2,2,1,2,1,1,1,3,1,3,1,3,1,1,4,1,4,2,3,3,1,2,1,2,5,7,7,3,2,4,4,5,5,5,4,3,5,5,5,7,7,7,7,6,6,2,2,2,2,2,2,2,2,2,2,2,1,2,2,4,2,3,3,3,2,2,2,2,1,2,1,5,5,5,3,2,4,1,3,2,1,3,5,1,5,4,2,4,3,3,3,2,2,3,3,3,3,3,2,2,1,3,4,4,4,2,1,4,4,4,3,2,1,3,3,3,2,2,4,4,2,3,3,1,2
VCU,1993,2,1,2,1,1.6256,79.54545455,3,2,8,0,2,NA,1,2,36.5,36.66666667,36.58333333,37.55769348,-77.37689972,74,8.888888889,09:34:43,5,1,2,1,NA,2,2,5,NA,4,4,7,8,1,NA,2,5,3,1,6,1,1,NA,1,NA,NA,NA,NA,NA,NA,NA,NA,NA,NA,2,3,5,5,4,3,3,2,4,3,5,5,3,3,3,3,1,2,2,2,2,2,2,3,4,2,4,5,5,3,4,5,4,4,5,5,5,4,4,5,2,3,5,5,3,4,4,4,4,2,5,3,6,5,4,4,4,6,5,5,2,4,5,2,4,5,2,2,3,3,2,4,3,4,3,4,4,3,4,2,3,2,4,4,4,4,5,5,4,2,3,3,1,2,1,1,2,1,1,2,4,1,4,4,2,5,4,3,2,2,2,2,2,3,2,3,5,4,5,3,3,2,3,4,5,4,3,2,5,4,2,2,2,1,4,5,3,4,3,2,3,2,4,3,2,5,4,4,4,4,3,4,2,1,3,2,5,4,2,1,2,5,3,4,5,3,3,5,4,4,3,3,2,4,3,3,3,2,4
Poland,1993,2,1,1,7,1.65,70,4,2,1,2,2,NA,1,2,36.6,36.6,36.6,52.25,21,70,1,11:49:26,9,1,2,1,NA,4,2,5,1,8,1,5,4,2,1,2,3,6,1,8,1,1,NA,2,Studenci z roku,Cz?onkowie klubu sportowego,NA,NA,NA,4,5,NA,NA,NA,2,3,4,5,5,5,2,3,5,5,2,2,3,2,3,3,4,5,5,4,3,5,2,2,5,5,2,2,2,2,3,2,4,2,3,2,4,4,4,4,4,2,2,2,3,3,4,2,2,2,2,2,1,2,2,2,2,6,2,2,2,2,6,2,2,5,3,6,3,3,5,3,2,2,3,4,3,3,3,6,6,1,3,2,5,5,5,4,5,3,5,5,4,3,5,4,6,3,3,4,2,2,2,2,2,4,3,2,2,2,2,1,2,2,1,3,4,7,4,4,4,1,2,5,4,4,2,2,3,2,2,5,3,4,4,3,4,3,4,5,2,3,2,4,4,5,5,4,4,4,4,4,2,2,2,3,3,4,4,2,2,4,2,3,3,3,2,4,4,5,5,4,4,3,4,5,3,2,5
Tsinghua,1993,1,1,1,7,1.68,67,2,2,0,0,2,0,1,2,36.5,36.7,36.6,30.58009338,114.273407,71,16,10:54:08,7,3,2,1,0,4,1,5,0,8,1,8,5,1,1,2,3,1,1,1,8,2,1,2,NA,NA,NA,NA,NA,NA,NA,NA,NA,NA,2,3,2,3,4,5,1,3,1,2,3,3,4,3,3,3,2,3,2,2,4,4,3,4,4,2,3,2,4,2,3,2,2,2,2,4,4,4,3,4,3,2,2,2,2,2,3,4,3,3,4,5,4,2,3,5,4,4,4,6,3,4,2,6,2,6,2,5,2,2,3,5,3,2,3,2,3,3,3,2,3,3,3,4,4,4,2,3,4,4,2,2,4,1,4,6,5,5,6,2,2,2,2,2,3,2,2,3,2,2,2,2,1,4,2,5,6,4,6,6,6,6,1,4,2,5,2,5,3,2,4,4,2,1,1,3,4,2,2,4,2,2,4,4,4,3,3,4,3,4,4,4,2,2,2,3,5,5,4,4,3,4,4,4,4,4,2,4,2,3,2,4,2,3,2,3,4,3,3
Zurich,1993,2,1,1,7,1.7,67,3,2,0,0,2,NA,1,2,36.6,36.6,36.6,NA,NA,69,0,11:37:27,1,1,1,1,NA,4,4,4,2,8,3,5,3,2,1,2,8,3,1,4,1,1,NA,1,NA,NA,NA,NA,NA,NA,NA,NA,NA,NA,2,2,2,3,3,3,1,1,3,2,3,4,4,4,4,5,3,3,3,4,3,3,4,4,4,4,3,3,4,1,3,3,1,4,3,4,3,1,3,1,3,1,3,1,3,3,3,5,5,5,2,4,5,4,5,4,2,5,2,1,2,2,2,4,3,4,1,2,3,5,4,4,2,6,1,2,1,1,3,2,2,4,3,4,5,4,4,4,4,4,4,4,4,4,4,4,5,5,4,2,2,3,2,3,4,3,2,2,3,5,2,2,2,3,2,5,6,5,3,5,5,5,3,4,4,4,1,2,4,2,2,5,4,4,5,5,2,4,3,4,2,4,4,4,4,3,3,3,4,3,4,4,2,2,4,1,1,3,2,3,2,4,3,4,4,4,3,4,4,4,3,5,2,3,3,5,3,4,4
Poland,1993,2,3,1,7,1.79,65,2,2,12,5,2,NA,1,2,36.5,36.7,36.6,52.23330688,21.01669312,68,0,11:04:21,9,1,2,1,NA,4,4,4,1,5,2,4,4,1,NA,2,5,6,1,2,1,1,NA,1,NA,NA,NA,NA,NA,NA,NA,NA,NA,NA,1,1,2,2,1,4,1,1,1,1,2,1,2,4,3,5,4,3,3,3,4,3,3,4,4,4,3,4,4,2,4,4,2,4,2,4,4,4,4,4,4,2,2,2,3,3,4,2,4,2,6,4,7,4,3,4,2,6,5,2,2,2,7,6,1,5,2,5,2,2,2,2,2,2,1,2,2,2,2,3,3,2,1,2,2,3,4,3,2,2,3,4,4,4,3,3,7,3,2,2,4,2,3,2,2,2,2,4,3,2,3,1,1,4,1,5,5,4,2,4,4,3,1,5,3,5,3,4,2,2,4,4,4,1,3,2,2,2,4,2,3,5,4,5,4,5,2,4,3,2,4,2,2,3,3,2,4,3,2,5,4,3,3,3,3,2,1,2,4,4,5,5,5,5,5,5,5,1,4
SMU,1993,1,1,1,6,1.62,58,3,2,6,0,2,NA,1,2,36.3,36.9,36.6,1.293106079,103.8558044,70,26,09:49:07,5,1,2,1,NA,4,1,2,1,1,NA,3,3,1,NA,2,8,1,NA,NA,1,1,NA,1,NA,NA,NA,NA,NA,NA,NA,NA,NA,NA,3,3,2,3,3,4,2,3,3,3,4,3,4,3,3,3,2,2,2,3,3,2,3,3,4,3,3,4,4,4,5,3,3,4,3,2,2,2,3,2,2,2,2,2,3,2,2,5,3,2,2,4,2,2,3,2,2,2,3,2,2,2,3,6,2,3,2,3,2,2,4,2,3,3,1,2,2,1,3,2,2,3,3,4,4,4,4,4,3,3,3,3,4,4,4,4,3,3,4,2,3,3,3,2,4,3,2,3,2,2,1,3,2,3,1,4,5,3,4,2,5,2,4,4,5,2,1,2,4,4,3,5,5,4,5,5,2,5,3,5,2,3,5,5,4,4,3,4,3,4,3,3,2,2,3,2,2,3,3,4,2,3,3,4,3,2,3,3,4,4,3,4,3,4,3,3,2,2,3
Oxford,1993,2,1,1,7,1.6002,65,4,2,7,4,2,NA,1,2,36.5,36.7,36.6,51.75,-1.25,71,1.666666667,08:46:43,5,1,2,1,NA,4,4,5,NA,8,5,8,8,1,NA,1,NA,1,NA,NA,2,1,NA,2,hockey club,NA,NA,NA,NA,8,NA,NA,NA,NA,3,4,4,4,2,2,3,4,2,3,4,4,3,2,3,3,2,2,2,2,2,2,3,3,3,2,2,4,4,4,3,3,3,4,3,4,4,3,3,4,3,1,2,2,2,2,3,1,4,2,2,1,2,1,4,4,1,3,1,1,1,2,1,4,1,5,4,3,4,4,1,1,4,4,4,3,5,3,1,6,4,5,5,4,4,4,4,4,4,3,4,4,6,7,7,7,7,7,7,2,2,2,3,2,2,2,2,4,2,2,3,2,2,4,3,4,7,5,2,3,4,4,2,4,4,4,3,2,2,2,2,2,2,1,3,2,2,2,2,1,2,1,4,2,4,4,4,4,3,4,4,3,1,1,1,3,4,4,4,3,1,2,2,4,4,3,3,4,3,3,3,4,3,4,3,4,3,4,2
Tsinghua,1993,2,1,1,7,1.58,48,3,2,4,0,2,0,1,2,36.45,36.75,36.6,30.58009338,114.273407,72,5,11:06:18,7,3,2,1,0,4,4,5,0,8,1,8,4,1,1,2,4,1,1,1,1,2,1,2,NA,NA,NA,NA,NA,NA,NA,NA,NA,NA,3,3,2,4,3,3,2,2,3,3,3,2,2,3,4,3,2,3,3,3,2,3,3,3,4,2,2,4,3,3,4,4,3,3,4,4,3,3,4,3,2,2,3,3,2,4,4,4,2,2,2,4,5,2,2,2,2,2,2,2,2,5,2,5,1,3,2,2,2,2,6,2,2,2,1,1,5,2,5,3,2,2,2,4,4,4,4,4,4,4,4,4,2,2,4,5,4,4,4,2,3,2,3,2,4,2,2,3,2,2,2,2,1,1,1,5,4,5,2,3,2,3,2,4,4,4,1,2,2,2,2,5,2,2,3,4,4,2,2,3,2,2,4,4,3,4,3,3,3,3,4,3,2,2,4,2,3,3,2,4,2,3,4,4,4,3,3,4,3,4,4,3,2,3,4,3,4,2,3
METU,1993,2,1,1,7,1.73,72,3,2,NA,NA,2,NA,1,2,36.6,36.6,36.6,39.91169739,32.84030151,56,4,09:39:13,3,2,2,1,NA,3,1,5,NA,5,1,6,6,1,NA,2,8,3,1,2,1,1,NA,2,NA,NA,NA,NA,NA,NA,NA,NA,NA,NA,4,4,4,2,3,4,3,3,4,5,4,3,4,3,3,3,3,2,2,4,3,3,3,4,5,3,3,4,4,3,4,4,3,4,4,4,4,4,4,4,4,2,2,2,3,3,4,5,5,5,2,5,3,6,4,5,2,5,2,2,1,1,5,6,1,2,2,5,5,2,2,2,2,2,2,2,2,2,4,6,5,2,2,1,1,1,1,1,1,1,1,1,2,3,3,3,3,3,3,2,3,3,3,3,3,4,3,2,3,3,2,2,4,4,2,4,4,2,1,2,2,3,2,4,5,2,1,2,5,5,1,5,5,1,5,5,3,5,3,1,3,4,4,4,3,3,3,4,1,2,4,2,2,5,1,1,1,3,3,4,2,4,4,4,4,3,2,4,4,1,5,4,3,2,4,3,4,4,4
Chile,1993,2,1,1,7,1.57,51,4,2,1,0,1,NA,1,2,36.5,36.7,36.6,33.44999695,-70.66670227,68,13,11:32:14,2,1,1,1,NA,4,4,4,4,5,5,5,5,2,8,2,8,1,NA,NA,2,2,8,1,NA,NA,NA,NA,NA,NA,NA,NA,NA,NA,2,3,3,4,3,4,3,2,5,4,4,3,4,1,3,2,2,3,2,3,1,3,3,2,2,2,1,5,5,3,5,2,2,3,5,4,4,4,4,4,4,2,3,3,4,2,5,1,1,1,2,1,6,1,1,1,1,7,1,1,1,1,2,1,1,1,1,4,1,1,1,1,1,1,1,1,1,1,1,3,4,1,2,5,5,5,5,5,3,1,2,1,3,4,5,5,4,4,4,3,3,1,3,2,2,3,1,2,2,2,5,2,1,1,1,5,6,4,2,5,1,3,2,4,2,5,4,2,5,4,3,4,4,2,2,3,4,2,5,2,4,4,4,2,5,5,5,5,5,5,4,3,1,1,3,3,4,4,2,3,4,2,2,2,3,5,3,5,3,5,5,5,5,4,4,4,3,2,4
VCU,1993,2,1,1,7,1.5748,49.09090909,5,1,8,0,2,NA,1,2,36.61111111,36.61111111,36.61111111,37.55220032,-77.45819855,81,14.44444444,10:36:24,5,1,2,1,NA,4,4,5,NA,4,2,5,5,1,NA,2,8,3,1,8,7,2,8,2,LVRS,DEM,NA,NA,NA,7,2,NA,NA,NA,3,2,2,2,2,3,2,3,1,2,4,4,4,2,2,3,4,2,3,3,2,2,3,3,4,2,2,1,3,1,1,1,1,1,2,4,3,3,3,3,1,1,1,1,1,1,1,2,2,2,2,2,5,1,2,7,2,2,2,1,1,2,2,2,1,3,3,6,3,5,4,5,3,6,4,2,3,3,5,3,6,3,4,5,5,4,5,5,5,4,4,3,2,4,3,3,4,4,3,4,4,1,4,4,1,4,2,4,2,2,2,2,3,4,2,5,4,6,4,2,2,4,4,2,4,4,4,2,3,2,2,4,3,2,4,3,2,3,2,2,3,3,4,2,4,4,5,4,4,4,3,3,2,2,3,2,4,4,2,2,2,3,2,2,2,2,2,4,4,4,3,4,3,3,3,4,4,3,4
VCU,1993,2,1,1,6,1.4986,56.81818182,1,1,8,0,2,NA,1,2,36.72222222,36.5,36.61111111,NA,NA,94,13.33333333,14:54:39,5,1,2,1,NA,4,4,4,1,4,1,3,2,1,NA,2,2,3,1,2,1,1,NA,1,NA,NA,NA,NA,NA,NA,NA,NA,NA,NA,4,3,3,4,4,3,2,3,3,3,3,4,4,5,5,5,3,3,3,3,4,4,3,4,5,2,4,4,4,2,4,4,2,4,3,4,4,4,4,4,4,2,3,4,2,3,4,7,7,7,7,7,7,5,6,7,6,7,6,7,4,3,7,4,6,2,4,4,4,3,3,2,5,5,2,4,4,4,3,3,4,3,5,5,5,5,5,5,5,5,5,5,7,5,5,5,4,3,5,4,4,3,4,2,3,4,4,2,4,2,3,2,2,3,2,1,1,1,1,1,1,1,1,4,4,4,3,4,4,3,4,4,2,1,4,4,4,3,5,3,1,4,5,5,2,5,2,5,4,3,2,2,2,2,2,4,4,3,4,1,1,5,5,1,4,3,2,3,4,3,4,2,4,5,3,3,3,1,5
VCU,1993,2,1,1,6,1.6002,77.27272727,4,2,16,0,2,NA,1,2,36.94444444,36.33333333,36.63888889,37.5809021,-77.41529846,94,13.33333333,11:18:37,5,1,2,1,NA,4,4,5,NA,8,5,8,8,2,1,2,8,1,NA,NA,3,1,NA,2,NAACP,Tau Sigma,NA,NA,NA,0,0,NA,NA,NA,5,3,4,4,5,2,5,2,2,4,5,3,3,4,3,5,2,3,2,3,3,3,2,4,4,2,2,2,3,2,4,5,5,4,4,4,4,4,1,2,1,1,2,2,1,1,1,4,2,2,2,2,2,2,2,2,2,6,2,2,2,2,2,2,2,4,5,5,2,5,6,2,2,2,3,5,6,2,2,6,6,1,2,5,5,4,5,4,2,1,1,4,6,3,2,4,2,4,2,1,2,2,4,1,2,2,2,2,2,2,4,1,3,2,4,1,1,4,1,3,4,3,4,4,4,4,1,4,1,4,4,4,2,2,2,2,2,2,2,2,4,3,4,2,4,4,2,2,3,3,4,4,2,2,2,4,4,4,3,2,2,4,5,4,2,2,1,4,2,4,3,3,4,2,2,4,2,2,1
METU,1993,2,1,1,5,1.62,49,5,2,NA,NA,2,NA,1,2,36.4,36.9,36.65,39.91169739,32.84030151,58,7,10:23:41,3,2,2,1,NA,4,4,4,4,1,NA,2,2,1,NA,2,8,1,NA,NA,1,1,NA,1,NA,NA,NA,NA,NA,NA,NA,NA,NA,NA,3,5,5,4,5,4,5,4,4,4,4,2,4,2,3,3,1,2,1,2,2,2,1,3,3,1,1,1,1,1,1,4,4,2,1,1,4,4,4,2,4,1,1,1,1,3,4,3,2,1,5,6,6,2,1,4,1,4,1,1,2,1,7,1,1,1,1,2,1,1,1,1,1,7,1,1,1,1,1,1,2,2,2,3,2,3,3,3,2,2,2,2,3,5,4,5,4,3,4,1,1,1,2,1,1,2,1,1,2,2,1,1,5,1,1,5,3,3,2,2,2,2,2,3,4,4,2,5,5,3,5,5,3,1,1,4,4,1,1,3,3,5,3,2,5,5,5,5,2,3,5,2,1,4,3,1,5,5,4,5,3,3,5,5,4,4,1,3,1,5,5,5,1,4,3,3,2,4,5
SMU,1993,2,1,1,1,1.62,60,3,2,3,0,2,NA,1,2,36.7,36.6,36.65,1.293106079,103.8558044,70,27,10:35:02,5,1,2,1,NA,4,4,5,NA,1,NA,4,4,1,NA,2,6,1,NA,NA,1,2,8,2,AIESEC,NA,NA,NA,NA,7,NA,NA,NA,NA,4,2,2,3,4,4,2,2,3,3,3,2,2,4,4,3,2,2,3,2,4,2,2,3,4,2,4,2,2,2,2,2,2,2,2,2,2,2,2,2,2,2,2,2,2,2,2,5,5,3,5,3,3,5,4,3,5,3,5,5,5,5,5,5,5,4,3,5,3,5,3,3,3,3,3,3,3,3,5,3,2,3,3,5,5,5,5,5,5,5,5,5,4,2,2,2,4,4,4,4,4,4,2,4,4,4,4,2,4,4,2,4,2,4,2,5,3,5,1,3,3,3,4,2,4,2,2,2,5,4,4,4,4,4,2,4,4,4,4,4,4,4,4,4,3,4,4,4,4,4,4,4,3,3,4,3,3,4,2,4,4,4,2,4,4,4,4,4,4,4,4,4,4,4,4,4,4,2,4
SMU,1993,1,1,1,7,1.8,76,4,2,0,0,2,NA,1,2,36.8,36.5,36.65,1.293106079,103.8558044,70,26,10:23:26,5,1,2,1,NA,2,2,5,NA,7,2,8,8,2,8,2,5,1,NA,NA,3,2,3,1,NA,NA,NA,NA,NA,NA,NA,NA,NA,NA,2,4,4,4,3,3,1,2,4,4,5,2,4,3,4,3,1,1,2,4,3,1,3,2,3,3,3,4,1,1,5,1,1,1,1,4,4,1,4,1,4,1,1,1,1,1,4,2,1,2,1,1,1,2,1,2,1,1,1,1,2,1,2,2,1,2,1,1,1,1,1,2,1,2,1,2,1,1,1,1,2,1,1,5,5,5,5,5,5,5,5,5,5,5,5,6,6,6,6,1,1,1,1,1,1,1,1,1,1,1,3,3,2,3,2,4,3,4,3,2,2,2,4,4,4,3,3,3,3,3,3,4,3,2,3,4,4,4,3,4,4,4,3,2,5,5,5,5,5,5,5,5,1,1,1,3,3,5,4,4,1,2,4,1,2,4,2,5,5,5,5,5,1,3,4,4,4,4,4
METU,1993,1,1,2,3,NA,87,3,2,10,0,1,20,1,2,36.8,36.5,36.65,39.91169739,32.84030151,49,6,11:10:51,3,2,2,1,NA,4,4,5,NA,8,3,4,3,1,NA,2,8,1,NA,NA,1,1,NA,1,NA,NA,NA,NA,NA,NA,NA,NA,NA,NA,3,4,5,3,4,4,4,5,2,4,3,3,4,2,3,5,2,2,2,2,2,2,2,5,3,2,3,2,2,2,2,4,2,3,1,2,4,3,4,3,2,1,1,2,4,3,2,5,4,5,5,6,4,4,5,3,5,2,5,6,5,4,4,5,4,5,3,5,5,5,4,5,4,3,3,6,3,3,5,3,3,3,4,4,4,4,5,4,5,3,4,3,7,6,7,6,7,5,6,4,4,4,3,4,3,4,3,3,4,3,1,4,2,4,3,5,6,5,6,4,5,5,3,2,4,4,3,2,4,3,4,4,5,2,4,4,2,4,3,4,3,4,4,2,4,1,3,4,4,3,2,4,5,3,3,2,4,3,4,3,2,3,2,5,4,2,3,4,3,4,2,3,3,4,3,4,4,2,4
Zurich,1993,2,1,1,7,1.72,63,4,2,0,8,2,NA,1,2,36.6,36.7,36.65,NA,NA,76,-1,10:36:22,1,1,2,1,NA,4,2,4,1,7,1,6,6,1,NA,2,8,3,1,8,1,1,NA,1,NA,NA,NA,NA,NA,NA,NA,NA,NA,NA,3,2,4,5,3,2,2,4,2,3,4,4,4,2,2,3,2,2,2,2,3,2,2,2,4,1,3,4,4,2,4,2,2,4,2,2,5,4,4,4,4,2,2,2,2,4,4,3,2,2,5,3,1,5,5,2,2,3,5,1,2,3,3,2,5,5,2,3,2,2,2,1,2,6,1,1,2,2,1,3,2,2,5,5,4,5,5,4,5,2,5,3,7,5,6,6,7,6,6,2,2,2,2,4,3,4,2,2,2,2,2,2,2,4,4,5,7,5,6,2,3,5,2,5,2,4,2,2,4,2,2,4,3,1,4,5,5,3,2,4,3,4,4,3,4,5,3,4,4,4,5,4,3,2,3,2,4,3,4,2,1,4,2,4,4,4,2,4,4,2,4,2,4,4,4,3,4,2,5
SMU,1993,2,1,1,7,1.55,54,3,2,0,0,2,NA,1,2,36.5,36.8,36.65,1.293106079,103.8558044,70,26,10:40:59,5,1,2,1,NA,4,4,5,NA,1,NA,5,1,1,NA,2,8,3,1,3,1,1,NA,1,NA,NA,NA,NA,NA,NA,NA,NA,NA,NA,2,3,3,4,4,3,2,3,4,3,3,4,4,3,4,3,2,2,3,2,3,3,2,4,5,3,3,4,4,4,4,4,3,3,4,4,3,3,3,4,3,3,4,4,4,4,3,3,3,3,3,4,4,3,3,2,3,3,3,3,3,3,5,3,3,3,3,3,3,3,3,3,3,3,3,4,5,3,3,3,3,3,3,5,5,5,5,5,5,5,5,5,3,5,5,5,5,4,4,2,3,2,3,2,3,4,2,2,2,2,3,2,2,3,2,5,4,4,4,4,4,3,3,3,4,2,1,4,3,2,2,5,3,2,4,4,4,4,3,3,4,4,4,3,3,4,4,4,4,3,4,4,2,2,3,2,2,3,4,2,2,2,2,4,4,4,2,3,4,4,3,3,2,3,3,3,3,2,4
VCU,1993,2,1,1,7,1.5494,63.63636364,4,2,2,0,2,NA,1,2,36.83333333,36.55555556,36.69444444,37.46769714,-77.58999634,64,10.55555556,10:40:50,5,1,1,1,NA,4,4,2,2,4,4,3,3,1,NA,2,6,3,1,8,3,1,NA,1,NA,NA,NA,NA,NA,NA,NA,NA,NA,NA,2,3,4,3,4,5,1,3,2,4,5,4,4,2,2,2,2,2,1,2,2,2,2,1,5,2,3,2,4,2,3,2,2,3,2,3,4,4,4,4,4,1,2,1,2,2,3,1,1,1,1,1,2,1,1,1,1,4,1,1,1,1,1,1,1,1,1,1,1,1,1,1,1,1,1,1,1,1,1,1,1,1,1,5,5,5,5,5,5,3,5,5,5,4,4,4,3,3,3,2,2,1,2,2,2,2,2,2,2,1,3,3,1,3,2,5,7,6,5,5,5,5,1,3,2,4,2,3,3,4,3,5,2,1,1,2,3,2,2,3,4,4,3,3,4,5,5,5,3,4,5,4,2,4,2,4,2,4,4,2,2,4,2,4,2,4,4,4,5,4,4,4,2,4,4,5,5,2,4
SMU,1993,1,1,1,3,1.75,69,4,2,1,0,2,NA,1,2,36.7,36.7,36.7,1.293106079,103.8558044,70,26,10:55:06,5,1,2,1,NA,4,4,4,1,1,NA,6,6,2,1,2,6,1,NA,NA,1,1,NA,1,NA,NA,NA,NA,NA,NA,NA,NA,NA,NA,3,3,2,5,3,4,4,3,2,4,4,3,4,3,3,3,3,3,3,3,3,3,3,3,3,3,3,1,2,2,2,2,2,2,2,1,2,2,2,2,2,2,2,2,2,2,2,6,4,3,5,4,4,3,4,4,3,4,3,6,5,5,4,3,5,4,3,6,2,3,5,2,5,4,3,4,3,3,4,3,4,2,3,5,4,5,5,5,5,5,5,5,2,5,5,5,2,2,3,2,2,1,3,1,2,2,2,2,2,2,3,3,3,2,3,3,3,3,1,1,1,2,4,4,4,3,2,2,4,3,3,5,4,4,3,3,2,4,2,2,3,3,5,3,4,4,3,4,3,3,3,3,3,3,3,3,3,3,3,3,3,3,3,3,3,3,3,3,3,3,3,3,3,3,2,2,2,2,2
SMU,1993,1,1,1,5,1.8,67,3,2,0,0,1,2,1,2,36.6,36.8,36.7,1.293106079,103.8558044,71,26,10:35:40,5,1,2,1,NA,4,4,5,NA,8,1,5,2,2,1,2,8,1,NA,NA,1,1,NA,2,BONDUE,NA,NA,NA,NA,15,NA,NA,NA,NA,4,4,2,3,2,1,1,2,1,1,4,2,3,3,4,3,3,2,1,2,2,2,3,2,5,2,3,4,4,2,4,3,1,1,2,2,4,4,4,2,4,1,1,2,1,2,3,3,2,1,1,4,1,2,1,1,1,1,2,2,2,1,4,2,1,1,1,2,1,1,1,4,1,1,2,2,2,1,1,5,3,1,3,5,5,5,4,4,5,5,5,5,6,7,5,7,7,2,5,1,2,2,2,2,1,1,2,1,2,1,2,2,2,3,4,5,7,3,3,2,6,5,5,4,5,5,1,5,1,5,2,5,2,2,5,5,2,5,4,1,4,4,4,2,5,4,4,5,3,4,4,3,2,2,2,2,1,4,4,4,2,4,4,4,3,2,2,2,4,4,4,4,3,3,2,3,4,2,3
Oxford,1993,2,1,2,7,1.75,67,3,2,0,0,2,NA,1,2,36.6,36.8,36.7,51.75,-1.25,74,2.777777778,08:29:23,5,1,2,1,NA,4,4,5,NA,4,3,8,6,2,6,2,8,1,NA,NA,2,2,1,2,Christian Union,Church Small Group,NA,NA,NA,5,4,NA,NA,NA,2,1,2,3,2,2,2,3,2,3,4,1,2,3,3,4,3,2,3,2,3,3,2,3,4,2,4,3,4,3,4,3,2,2,3,4,4,3,4,3,2,2,4,2,4,3,3,5,6,5,6,6,5,6,6,4,4,5,3,4,2,6,4,6,3,4,4,4,4,5,2,3,4,3,3,2,4,3,4,4,2,2,3,4,4,4,5,5,3,3,4,4,5,6,5,5,6,5,5,3,3,2,3,2,2,2,2,3,2,3,2,2,2,3,2,4,4,5,4,4,4,2,1,2,2,5,4,4,4,3,4,2,2,1,3,3,4,2,4,2,4,3,4,4,4,4,4,4,4,3,2,2,3,3,2,4,4,3,4,3,4,4,2,4,3,3,2,4,4,3,3,4,2,4,4,4,4,4,2
Bamberg,1993,2,1,1,7,1.66,76,4,2,2,0,2,NA,1,2,36.8,36.6,36.7,49.43710327,11.11940002,67,5,11:47:42,1,1,1,1,NA,4,4,4,2,8,6,6,5,2,1,2,5,1,NA,NA,1,1,NA,1,NA,NA,NA,NA,NA,NA,NA,NA,NA,NA,2,3,3,4,2,3,1,2,2,4,3,4,2,2,3,2,2,2,2,2,2,2,1,2,4,2,2,4,4,3,3,2,2,4,2,4,4,4,2,5,2,2,4,4,2,2,2,5,1,1,2,1,3,5,4,2,1,2,1,2,2,1,1,1,1,1,1,3,1,1,1,1,1,1,1,1,1,1,1,3,2,1,1,4,5,5,5,4,4,2,4,4,4,3,3,4,3,3,3,2,2,1,2,1,3,4,2,2,2,1,2,2,2,3,1,4,6,5,2,3,4,6,1,2,2,4,3,5,3,3,3,4,4,1,1,4,2,1,4,2,4,4,4,4,3,5,3,5,3,2,5,2,1,2,1,4,4,5,3,1,2,4,2,3,4,4,1,4,5,5,4,3,1,5,5,4,3,2,4
METU,1993,2,1,2,7,1.69,59.7,4,2,NA,NA,2,NA,1,2,36.8,36.6,36.7,39.91169739,32.84030151,70,3,11:08:08,3,2,4,1,NA,4,4,5,NA,6,1,6,6,1,NA,2,8,1,NA,NA,1,1,NA,1,NA,NA,NA,NA,NA,NA,NA,NA,NA,NA,2,5,3,4,3,2,2,1,3,2,4,3,3,3,3,4,3,3,3,3,3,4,3,3,4,3,4,4,4,4,4,2,2,4,2,4,4,4,4,4,4,1,1,1,2,3,3,5,5,3,3,6,5,2,5,5,2,5,2,6,2,1,6,1,2,3,2,5,2,2,2,5,3,2,3,3,5,2,5,2,5,2,2,5,4,4,4,5,3,2,4,2,6,6,6,5,6,3,3,2,2,2,2,2,2,3,2,4,2,2,2,3,2,1,2,4,5,6,3,4,5,5,1,1,2,4,4,4,4,3,4,4,4,5,2,4,4,2,4,4,4,4,3,4,4,4,4,4,4,4,4,4,2,3,2,2,5,3,2,3,2,2,2,4,2,2,2,3,4,4,3,4,1,4,4,4,2,4,1
Oslo,1993,2,1,1,7,1.65,54,NA,2,1,0,2,NA,1,2,36.7,36.7,36.7,59.91270447,10.74609375,82,-22,13:17:18,4,1,1,1,NA,4,2,4,1,1,NA,4,4,1,NA,2,5,3,4,4,1,1,NA,1,NA,NA,NA,NA,NA,NA,NA,NA,NA,NA,4,4,3,5,4,4,4,4,5,4,4,5,4,2,3,3,2,2,3,2,2,2,2,3,4,2,2,4,3,2,5,4,4,4,3,5,5,4,4,4,4,4,3,4,3,3,4,6,5,5,5,6,5,3,2,3,3,5,6,1,5,1,6,4,5,2,2,4,3,2,2,2,3,2,2,3,2,2,3,2,3,1,4,5,4,3,5,5,5,5,5,5,4,5,4,4,5,5,4,1,1,1,2,1,1,1,3,1,1,1,2,1,2,1,2,4,6,6,5,5,5,5,2,4,2,4,2,4,4,2,2,4,4,1,3,4,4,3,4,4,2,2,2,2,4,4,2,4,4,4,4,2,2,2,2,2,5,4,4,1,2,2,3,2,4,3,2,4,2,2,4,4,2,2,4,2,2,2,4
Tsinghua,1993,2,1,2,5,1.62,58,3,2,4,0,2,0,1,2,36.8,36.7,36.75,39.92889404,116.3883057,22,8,09:42:15,7,3,2,1,0,4,4,5,0,7,2,8,6,1,1,2,8,1,1,1,4,2,1,1,ÑÐ»á,NA,NA,NA,NA,7,NA,NA,NA,NA,2,4,5,3,2,2,4,4,3,4,4,3,5,2,4,4,2,2,2,2,2,3,2,2,4,2,2,4,2,2,4,2,2,4,2,3,4,1,2,2,1,1,1,1,4,1,4,5,2,2,2,5,2,1,2,3,4,3,2,2,2,2,2,5,2,3,3,3,2,2,2,2,3,3,3,3,3,3,3,3,2,3,4,5,5,5,4,5,4,5,5,5,7,1,2,7,7,7,7,2,2,2,2,2,1,2,2,3,2,2,3,4,2,2,2,5,8,7,2,3,1,6,1,2,3,4,2,4,2,2,4,5,2,2,1,4,4,1,2,4,4,4,3,4,4,4,4,4,3,4,5,4,2,2,2,4,5,5,2,2,1,2,2,4,3,4,1,4,2,2,2,3,2,4,3,4,3,2,5
SMU,1993,1,1,1,6,1.8,70,3,2,1,0,2,NA,1,2,37.2,36.4,36.8,1.293106079,103.8558044,70,27,09:29:41,5,1,2,1,NA,4,4,5,NA,1,NA,5,5,1,NA,2,6,1,NA,NA,1,1,NA,1,NA,NA,NA,NA,NA,NA,NA,NA,NA,NA,3,3,2,2,3,4,3,3,2,3,4,2,2,2,2,2,3,3,3,3,2,4,3,3,3,3,2,3,2,2,3,2,2,2,3,3,2,2,2,2,2,2,2,2,2,2,2,4,4,4,4,4,4,4,4,4,4,4,4,4,4,4,4,4,4,4,4,4,4,4,4,4,4,4,3,4,4,4,4,4,3,4,4,3,1,3,1,1,1,1,1,1,3,4,4,4,4,3,3,2,3,2,4,2,2,2,3,3,2,2,2,2,3,4,4,1,2,3,2,2,2,2,3,3,4,2,2,3,3,3,3,3,3,2,4,4,4,4,2,2,3,3,4,4,4,4,3,3,1,3,3,1,3,5,3,2,2,2,4,4,3,4,4,4,3,3,3,3,4,3,3,3,3,3,3,2,2,2,2
METU,1993,2,1,2,3,1.6,70,4,2,NA,NA,1,10,1,2,36.7,36.9,36.8,39.91169739,32.84030151,49,6,10:34:46,3,2,2,1,NA,4,4,5,NA,4,1,8,7,1,NA,2,8,1,NA,NA,3,2,4,1,NA,NA,NA,NA,NA,NA,NA,NA,NA,NA,3,2,3,4,2,3,1,2,1,3,3,2,3,3,3,3,2,3,2,3,3,2,2,3,4,3,4,3,3,4,3,4,2,3,3,2,4,2,4,3,3,2,2,2,2,2,3,7,5,2,5,7,5,6,4,6,2,5,1,4,2,2,6,2,2,3,2,4,2,2,2,1,2,2,2,2,4,3,2,2,2,1,3,4,3,4,5,4,4,4,3,4,5,7,6,6,5,5,6,2,2,2,3,3,3,4,4,4,3,2,2,3,4,4,4,4,7,7,4,5,6,6,4,3,4,4,2,2,3,3,3,5,4,2,4,5,5,5,3,4,4,4,4,2,5,5,5,4,5,5,5,5,2,2,1,2,3,4,3,5,4,2,3,5,1,5,3,5,2,5,5,5,3,3,3,3,2,2,4
SMU,1993,2,3,2,4,1.56,42,2,2,1,2,2,NA,1,2,36.6,37,36.8,1.293106079,103.8558044,70,26,10:27:49,5,1,2,1,NA,4,4,5,NA,3,3,4,3,2,1,2,5,1,NA,NA,3,1,NA,1,NA,NA,NA,NA,NA,NA,NA,NA,NA,NA,3,2,2,2,3,3,2,3,2,3,3,3,2,3,3,3,3,3,3,3,3,3,3,3,3,3,4,4,4,3,4,3,4,3,4,4,4,4,4,4,4,3,3,3,3,4,4,5,5,5,5,5,5,5,5,5,5,5,5,5,5,5,5,5,5,3,3,5,5,4,5,5,5,5,5,5,5,3,5,5,3,3,3,4,4,4,4,4,4,4,4,4,6,5,5,5,5,5,4,4,2,2,2,2,2,2,4,2,4,2,2,4,2,2,4,3,3,4,2,2,2,2,3,3,4,4,1,3,3,3,4,4,2,2,4,4,4,2,2,2,4,4,4,2,4,2,2,4,3,4,4,4,4,4,3,3,2,2,4,2,2,4,2,4,4,4,2,2,4,4,4,4,2,4,4,4,4,3,4
SMU,1993,1,1,2,6,1.77,70,4,2,6,0,2,NA,1,2,36.8,36.9,36.85,1.293106079,103.8558044,71,26,09:27:05,5,1,2,1,NA,4,4,5,NA,1,NA,6,8,1,NA,2,8,1,NA,NA,2,1,NA,2,Archery Club,NA,NA,NA,NA,4,NA,NA,NA,NA,3,3,3,2,2,3,1,4,2,4,4,3,2,3,3,2,2,4,2,3,2,3,4,2,4,2,2,2,4,1,2,2,3,1,2,4,2,2,3,4,2,2,1,1,1,2,2,5,5,5,6,6,6,5,6,5,4,5,6,3,6,5,5,6,3,3,2,5,2,3,3,3,5,5,2,2,3,2,3,4,5,3,4,5,4,4,5,4,2,2,4,3,3,6,5,7,5,5,5,2,4,2,2,3,2,2,3,4,3,2,2,2,2,3,2,3,3,4,1,2,3,3,4,4,5,2,1,2,4,2,1,5,4,4,5,5,2,4,2,4,1,4,4,5,4,5,2,5,3,2,4,3,2,1,2,4,4,5,5,2,1,2,4,2,4,3,4,4,3,4,4,3,2,5,4,4,2,1,4
Tsinghua,1993,2,1,2,6,1.67,55,2,2,2,0,2,0,1,2,36.8,36.9,36.85,30.58009338,114.273407,82,17,10:35:07,7,3,2,1,0,4,1,5,0,8,1,4,4,1,1,2,3,1,1,1,1,2,1,2,NA,NA,NA,NA,NA,0,0,0,0,0,1,5,3,3,4,3,1,1,1,4,2,3,4,3,2,2,2,4,2,3,3,2,4,1,3,4,1,3,5,3,4,3,1,1,2,5,1,1,3,1,1,1,1,1,1,4,1,6,4,2,2,4,2,4,4,5,1,4,4,4,5,1,2,6,2,2,2,2,3,2,2,4,2,2,3,4,2,6,4,2,4,1,4,5,4,4,4,4,3,3,4,5,3,1,4,7,6,4,4,1,1,2,2,1,2,3,1,3,1,1,2,2,2,4,3,3,3,4,2,3,2,4,1,4,5,5,1,4,5,3,4,3,4,1,2,4,4,2,3,4,4,4,4,3,3,4,4,4,3,3,4,4,3,2,2,2,2,2,2,3,2,4,2,4,4,4,1,3,2,4,4,4,2,2,2,3,4,2,4
SMU,1993,1,1,2,6,1.75,56,4,2,0,0,2,NA,1,2,36.7,37,36.85,1.293106079,103.8558044,79,26,09:53:15,5,1,2,1,NA,4,4,5,NA,8,3,5,1,1,NA,2,8,1,NA,NA,1,2,5,1,NA,NA,NA,NA,NA,NA,NA,NA,NA,NA,2,2,4,4,2,3,1,1,1,3,3,4,4,3,4,4,2,2,4,3,3,4,2,3,4,2,4,4,4,4,4,4,5,5,2,3,4,4,5,5,2,3,4,3,2,2,4,2,2,2,1,2,2,1,2,3,2,2,1,7,2,2,2,5,2,5,3,5,6,1,2,2,2,3,3,3,2,3,2,2,3,3,6,5,5,4,5,5,5,5,5,5,6,5,5,7,6,2,2,4,3,3,4,4,3,4,4,2,3,3,2,2,2,4,2,3,4,6,2,4,2,1,2,5,5,3,1,2,4,2,4,4,4,3,4,3,2,5,1,3,2,2,3,4,4,4,4,3,4,4,3,4,3,4,2,2,1,1,2,4,4,2,3,4,3,2,4,4,4,2,2,3,4,4,2,3,4,1,2
Poland,1993,1,1,2,3,1.83,85,3,1,4,0,2,NA,1,2,36.8,37,36.9,54.58329773,18.3999939,81,-3,20:14:32,9,1,2,1,NA,4,4,5,1,7,1,4,4,1,NA,2,8,6,4,5,1,1,NA,1,NA,NA,NA,NA,NA,NA,NA,NA,NA,NA,4,2,1,5,4,4,1,1,2,2,3,4,4,4,3,5,1,2,2,3,4,3,2,4,4,3,3,1,2,2,1,4,1,2,2,2,4,5,4,4,4,2,2,2,2,2,4,7,5,6,5,7,6,7,7,6,3,1,3,4,6,7,6,6,2,2,3,2,2,2,1,2,3,2,2,1,2,2,1,3,2,1,1,3,4,2,2,3,4,3,4,4,7,4,3,2,5,5,5,2,3,4,4,4,3,4,3,2,3,2,2,2,3,3,2,5,7,4,2,2,6,6,2,4,2,4,3,2,2,2,2,4,2,4,2,4,4,2,4,2,2,4,2,4,4,4,3,5,2,2,5,2,2,3,1,2,1,3,4,4,2,3,4,4,4,1,1,3,4,4,4,4,4,4,5,3,3,4,2
Oxford,1993,2,1,2,2,1.65,70,2,2,7,1,2,NA,1,2,37,36.8,36.9,51.75,-1.25,74,2.777777778,08:08:40,5,1,2,1,NA,4,4,5,NA,4,3,4,4,1,NA,2,5,1,NA,NA,3,2,5,1,NA,NA,NA,NA,NA,NA,NA,NA,NA,NA,4,2,2,2,2,4,2,4,2,2,4,2,2,2,3,3,3,4,3,3,3,4,3,3,2,2,4,4,4,4,4,4,4,4,4,4,4,4,4,4,4,4,4,4,4,4,4,3,3,3,2,3,5,4,4,5,2,5,3,6,2,2,3,2,3,5,4,3,6,3,3,4,4,2,3,2,3,2,3,3,3,3,1,5,5,5,5,5,5,5,5,5,6,6,6,6,6,6,6,2,2,2,3,2,2,2,2,3,2,2,4,2,2,2,4,4,5,4,2,2,2,5,4,4,4,4,1,4,4,3,3,4,3,2,4,4,4,4,4,4,4,4,4,4,4,4,4,4,4,4,4,4,4,4,4,4,4,4,4,4,4,4,4,4,4,4,4,4,4,4,4,4,4,4,4,4,5,4,4
Poland,1993,2,1,1,7,1.6,63,4,1,24,0,2,NA,1,2,37,36.9,36.95,52.23330688,21.01669312,88,0,10:19:25,9,1,1,1,NA,4,2,4,1,6,4,4,4,1,NA,2,8,6,1,3,1,1,NA,1,NA,NA,NA,NA,NA,NA,NA,NA,NA,NA,2,4,4,5,5,2,4,4,3,4,4,5,4,2,3,3,4,4,4,4,3,4,4,2,4,4,2,1,1,1,1,1,1,1,1,1,4,4,4,4,3,1,1,1,1,2,4,1,1,1,1,1,1,1,1,1,1,7,1,1,1,1,5,1,1,1,3,7,1,1,1,1,1,1,3,1,4,3,1,7,7,1,1,5,5,5,5,5,5,5,5,5,1,1,1,1,1,2,1,3,2,1,2,1,2,4,2,1,1,1,1,1,1,1,1,4,3,2,2,2,3,1,1,5,4,4,2,5,1,1,4,1,2,1,1,4,1,3,3,4,1,4,5,5,5,5,2,5,4,3,3,2,1,1,1,1,1,1,5,3,1,3,2,5,4,1,1,1,5,4,3,3,5,4,3,3,2,2,1
Tsinghua,1993,2,1,2,7,1.63,48,3,2,0,0,2,0,1,2,36.7,37.2,36.95,30.58009338,114.273407,82,17,11:20:29,7,3,2,1,0,4,2,5,0,8,3,6,5,1,1,2,7,3,2,2,8,2,1,1,ÐÄÀí×ÉÑ¯ÊÒ,NA,NA,NA,NA,2,NA,NA,NA,NA,1,4,3,4,1,4,1,4,4,4,4,2,4,1,2,4,2,2,1,2,1,1,2,2,5,1,2,2,4,1,4,3,1,1,4,4,4,4,4,4,5,1,1,1,1,1,1,3,4,3,5,5,1,2,2,5,5,2,2,2,7,1,2,6,1,6,1,3,1,2,2,2,1,2,2,3,6,4,5,3,5,2,5,4,5,5,5,5,4,4,5,5,7,1,4,5,7,7,7,2,1,1,2,2,2,2,1,3,1,1,2,1,1,4,2,4,6,7,5,6,2,6,1,4,5,5,1,5,1,1,5,5,1,1,4,4,4,4,1,5,2,2,5,5,3,5,2,5,4,2,5,2,1,1,2,4,4,2,2,5,2,5,2,5,5,4,1,5,5,5,5,1,2,5,4,4,2,4,4
METU,1993,2,1,2,5,1.65,55,4,2,0,0,2,NA,1,2,37.1,36.9,37,39.91169739,32.84030151,52,3,09:47:51,3,2,2,1,NA,4,4,5,NA,5,1,5,3,2,1,2,3,1,NA,NA,1,1,NA,1,NA,NA,NA,NA,NA,NA,NA,NA,NA,NA,5,2,5,5,5,3,4,2,3,4,3,3,5,3,3,2,2,2,2,2,3,2,3,2,4,2,2,1,1,1,1,1,1,1,1,1,4,1,4,1,4,1,2,2,2,2,2,4,2,3,2,6,3,3,3,4,3,4,2,3,4,2,4,4,2,5,4,3,5,6,5,3,3,4,4,3,4,3,5,4,4,3,2,5,5,5,5,5,5,4,5,5,3,5,5,5,4,4,4,2,4,2,4,2,2,2,3,4,2,2,2,4,4,4,2,3,2,5,2,2,2,1,2,2,4,4,2,3,4,3,4,4,4,2,3,4,4,4,4,4,2,2,4,4,3,4,2,3,5,3,3,4,2,2,2,3,3,3,4,4,2,3,4,4,2,2,2,4,3,2,4,2,4,4,2,4,3,2,3
VCU,1993,2,1,1,7,1.6002,70.45454545,4,2,0,0,2,NA,1,2,36.94444444,37.05555556,37,37.55380249,-77.46029663,81,14.44444444,14:53:12,5,1,2,1,NA,4,4,5,NA,5,2,3,3,1,NA,2,8,3,1,4,1,1,NA,1,NA,NA,NA,NA,NA,NA,NA,NA,NA,NA,3,3,2,5,5,3,4,3,2,1,4,5,3,4,4,5,3,3,4,4,5,3,3,4,4,3,4,2,4,1,2,1,1,2,2,4,5,4,4,4,3,2,3,3,4,1,4,7,6,7,7,7,7,6,6,1,7,4,6,7,5,5,7,6,5,3,2,4,2,4,2,4,2,4,5,1,1,5,2,2,2,1,7,4,4,4,5,5,5,5,5,5,7,6,5,5,5,5,5,3,4,1,3,4,1,3,3,2,3,4,2,3,2,3,2,3,3,4,4,4,4,4,3,3,2,4,3,3,3,3,3,4,4,2,2,3,3,3,4,4,2,3,4,5,4,5,3,3,3,2,4,3,2,3,3,1,3,3,3,3,2,3,4,3,2,1,3,3,5,3,3,3,3,5,3,4,3,5,4
SMU,1993,1,1,1,3,1.68,75,2,2,4,4,1,2,1,2,37,37.1,37.05,1.293106079,103.8558044,71,26,09:05:05,5,1,2,1,NA,4,4,1,NA,3,3,4,3,2,2,2,1,1,NA,NA,1,1,NA,1,NA,NA,NA,NA,NA,NA,NA,NA,NA,NA,3,3,3,3,3,3,3,3,3,3,3,3,3,3,3,3,3,3,3,3,3,3,3,3,3,3,3,3,3,3,3,3,3,3,3,3,3,3,3,3,3,3,3,3,3,3,3,4,4,4,4,4,4,4,4,4,4,4,4,4,4,4,4,4,4,4,4,4,4,4,4,4,4,4,4,4,4,4,4,4,4,4,4,3,3,3,3,3,3,3,3,3,6,5,5,5,5,5,5,3,3,3,3,3,3,3,3,3,3,3,3,3,3,3,3,3,6,4,4,4,4,4,3,3,3,3,1,3,3,3,3,4,4,4,4,4,3,4,3,3,3,3,4,3,3,4,3,3,3,3,3,3,3,3,3,3,3,3,3,3,3,3,3,3,3,3,3,3,3,3,3,3,3,3,3,3,3,3,3
SMU,1993,1,1,2,7,1.9,125,1,2,1,0,1,4,1,2,37.1,37.1,37.1,1.293106079,103.8558044,70,26,10:09:34,5,1,2,1,NA,4,4,5,NA,2,2,2,2,2,1,2,8,3,1,2,1,1,NA,1,NA,NA,NA,NA,NA,NA,NA,NA,NA,NA,2,2,2,2,2,3,2,3,2,1,3,2,2,4,4,5,3,4,3,3,5,3,3,5,5,4,5,4,4,4,4,4,4,4,4,4,4,4,4,4,4,4,4,4,4,4,4,6,5,4,5,6,6,4,6,5,4,5,6,5,5,6,6,6,5,6,4,5,2,4,5,5,4,4,4,4,4,4,5,5,2,4,4,5,5,5,5,5,5,5,5,5,7,7,6,6,7,7,6,4,2,2,2,3,2,4,2,2,3,2,1,2,1,2,3,4,5,7,2,2,3,3,2,2,5,3,2,5,3,2,4,3,2,4,4,2,4,4,2,4,4,4,4,3,2,5,5,3,4,4,3,4,3,4,3,4,2,4,3,2,3,4,3,4,4,2,2,3,3,3,4,4,2,4,4,3,4,2,4
VCU,1993,2,1,2,7,1.6256,90.90909091,3,2,6,0,2,NA,1,2,37.11111111,37.11111111,37.11111111,37.55380249,-77.46029663,74,16.66666667,11:11:14,5,1,2,1,NA,4,4,5,NA,5,3,4,3,1,NA,2,8,3,5,8,1,1,NA,2,Students for Bernie,Diversity Ambassador,NA,NA,NA,2,1,NA,NA,NA,4,2,1,2,3,2,1,1,4,2,2,4,2,5,3,4,2,4,4,3,4,4,4,4,5,5,4,4,5,4,4,4,1,4,5,4,4,4,2,4,2,2,2,2,1,4,2,6,6,5,6,5,1,5,6,6,5,5,5,7,3,7,5,6,1,6,5,6,6,6,5,5,5,6,6,6,7,3,4,6,6,1,6,5,4,4,5,5,4,2,4,4,5,5,6,7,5,6,6,1,1,2,1,1,4,2,1,2,1,2,2,4,1,2,2,4,4,6,6,7,3,2,5,5,5,1,1,1,4,2,5,5,5,2,5,5,1,5,3,2,2,1,5,2,4,4,4,4,5,4,2,4,1,5,1,2,5,4,4,2,5,5,4,4,2,2,5,5,5,1,1,4,4,5,1,2,2,2,5
VCU,1993,1,1,1,3,1.7272,77.27272727,4,2,1,0,2,NA,1,2,37.05555556,37.61111111,37.33333333,37.55380249,-77.46029663,68,10.55555556,10:05:42,5,1,2,1,NA,4,4,5,NA,8,5,8,3,2,2,2,5,3,2,5,1,2,4,2,Caver Promise,NA,NA,NA,NA,4,NA,NA,NA,NA,2,2,5,3,4,2,2,3,2,3,3,3,3,3,3,3,3,3,3,2,3,2,3,3,3,3,3,3,2,2,3,2,3,4,4,4,3,4,4,3,4,2,4,4,3,3,3,4,2,4,2,2,6,2,2,4,2,2,3,4,2,2,4,4,2,4,3,3,4,4,4,2,3,4,3,4,4,4,2,5,6,3,4,4,4,4,4,4,4,2,2,2,2,3,3,3,3,3,3,2,4,4,2,2,2,4,2,2,4,4,3,2,4,4,3,5,4,2,1,1,1,2,4,2,3,3,3,2,4,3,3,4,2,2,2,2,2,2,4,2,3,2,2,4,4,4,3,4,4,4,4,4,2,2,3,2,4,3,3,4,4,4,4,4,3,4,2,4,4,4,4,4,3,3,3,3,3,3,3
Oslo,1994,1,1,2,6,1.96,92,2,2,NA,NA,2,NA,1,2,35.2,35.3,35.25,59.91670227,10.75,82,-1,10:40:04,4,1,2,1,NA,4,1,4,1,3,2,3,2,2,1,2,1,1,NA,NA,1,1,NA,1,NA,NA,NA,NA,NA,NA,NA,NA,NA,NA,4,4,3,4,4,4,3,3,3,3,3,4,3,4,4,4,2,3,2,2,3,2,2,4,4,2,3,4,4,2,4,4,2,2,2,3,4,3,4,3,4,4,3,3,3,2,4,5,5,5,5,5,6,5,4,6,4,5,3,6,3,4,4,5,5,4,4,6,4,4,5,4,4,4,4,4,4,6,5,4,5,2,4,3,3,4,4,3,2,2,3,3,2,2,2,2,3,3,2,3,3,2,3,2,3,3,3,3,2,3,2,2,3,4,3,3,2,2,1,1,2,1,3,5,3,2,2,2,2,3,3,4,4,2,4,4,4,4,2,3,2,3,4,4,3,3,4,3,3,2,3,2,3,4,3,2,1,2,4,2,2,4,4,2,3,2,2,4,2,2,3,2,2,2,2,3,2,1,4
Oxford,1994,2,1,1,3,1.63,57,2,2,1,1,2,NA,1,1,36.7,33.9,35.3,51.75,-1.25,71,1.666666667,08:37:53,5,1,1,1,NA,4,2,5,NA,3,2,6,8,1,NA,2,8,3,3,4,3,1,NA,1,NA,NA,NA,NA,NA,NA,NA,NA,NA,NA,4,5,2,3,2,4,3,4,2,3,4,4,4,3,5,4,2,1,1,2,3,2,2,5,5,1,5,5,5,4,5,5,5,5,5,5,5,4,5,5,4,5,4,3,4,3,4,2,2,1,5,5,2,5,5,2,1,3,1,5,2,5,3,4,1,1,1,5,4,4,4,3,1,2,1,4,2,3,5,3,4,3,2,5,5,5,5,4,3,4,3,4,6,5,5,4,4,5,6,2,3,3,2,3,2,2,2,2,1,1,1,3,3,4,3,5,6,5,2,2,2,2,4,4,4,4,4,3,3,4,4,5,4,1,3,4,4,3,4,3,3,2,4,5,5,4,3,4,4,3,4,3,2,2,3,5,5,5,5,3,1,5,3,3,4,2,2,4,5,3,4,4,2,5,5,5,5,1,1
METU,1994,2,1,1,6,1.72,59,3,2,18,0,1,15,1,2,35.1,35.6,35.35,39.91169739,32.84030151,59,2,11:24:29,3,2,2,1,NA,4,4,5,NA,4,4,8,6,1,NA,2,6,1,NA,NA,1,1,NA,2,Kom¨¹nist Parti,Tiyatro Toplulu?u,NA,NA,NA,7,7,NA,NA,NA,4,5,5,5,3,3,2,3,3,2,5,4,4,3,2,3,2,3,2,3,2,2,2,3,4,2,2,2,3,4,2,3,1,2,2,4,4,2,2,4,2,1,1,1,2,1,3,2,2,2,2,5,2,2,2,2,3,2,2,2,2,2,3,2,1,3,2,3,3,2,5,2,2,2,1,2,2,2,2,2,2,2,2,4,3,2,5,4,4,2,3,2,3,4,3,5,4,3,2,2,2,1,3,2,2,3,3,2,2,1,1,2,1,2,1,4,4,5,2,4,5,1,3,2,4,5,3,4,2,4,2,5,4,1,4,5,2,4,4,3,4,4,4,5,5,4,4,3,2,3,4,3,2,4,2,2,2,5,4,3,2,4,4,4,4,2,2,4,3,4,4,5,3,4,4,5,4,4,5
SMU,1994,1,1,1,7,1.83,75,5,2,2,0,1,6,1,2,35.4,35.3,35.35,1.293106079,103.8558044,70,27,10:18:17,5,1,2,1,NA,4,4,5,NA,3,4,3,3,1,NA,2,4,1,NA,NA,1,1,NA,1,NA,NA,NA,NA,NA,NA,NA,NA,NA,NA,2,3,3,4,3,3,3,3,3,3,3,3,3,1,2,2,2,3,4,2,2,2,3,3,3,3,3,4,4,4,4,4,4,4,4,4,4,4,4,4,4,4,4,4,4,4,4,4,1,5,4,3,3,3,3,4,3,4,4,3,4,5,3,4,4,4,4,5,3,4,4,5,5,4,4,5,5,4,4,3,5,3,4,4,4,4,4,4,4,4,4,4,2,2,2,2,3,2,2,2,3,3,3,2,3,2,3,4,3,2,1,2,2,4,4,1,1,2,1,1,1,1,3,2,4,2,2,4,2,3,3,3,3,4,3,3,4,4,2,2,3,3,3,4,3,3,4,4,3,3,3,3,2,2,3,3,1,5,4,4,4,4,4,4,4,2,2,4,4,4,4,4,4,4,3,3,3,3,3
Oslo,1994,2,1,1,7,1.67,55,1,2,1,0,2,NA,1,2,35.5,35.4,35.45,NA,NA,78,-14,19:56:17,4,1,2,1,NA,4,4,4,2,5,3,6,4,2,2,2,5,3,1,3,1,1,NA,1,NA,NA,NA,NA,NA,NA,NA,NA,NA,NA,2,2,3,5,4,2,2,3,4,3,5,4,4,2,3,3,3,3,3,2,3,3,3,4,4,2,2,4,4,1,4,3,2,3,4,5,4,4,4,4,4,4,3,3,2,4,4,2,2,1,2,2,2,2,4,1,1,4,1,2,2,4,4,6,2,1,2,5,2,3,2,2,2,1,2,1,2,2,1,3,2,1,1,5,5,5,5,5,4,2,5,5,6,5,4,4,4,4,3,3,3,3,3,3,3,4,3,2,3,1,2,3,2,3,3,3,4,7,5,5,4,4,1,4,3,4,3,4,3,2,5,4,3,2,3,2,4,4,5,3,4,3,4,1,5,5,4,4,3,3,4,4,3,3,2,1,3,5,2,1,2,3,3,5,2,2,2,4,4,3,3,4,2,3,4,4,3,2,4
Kassel,1994,2,1,2,7,1.68,53,2,2,5,0,2,NA,1,2,35.1,35.9,35.5,51.31669617,9.5,54,1,09:32:17,1,1,2,1,NA,2,2,5,NA,1,NA,4,2,2,1,2,8,3,1,3,1,1,NA,1,NA,NA,NA,NA,NA,NA,NA,NA,NA,NA,3,2,3,2,4,3,2,4,2,2,4,3,3,4,5,4,3,2,3,4,3,3,2,4,3,3,4,1,1,1,3,3,1,2,1,1,5,1,5,3,4,1,1,2,1,1,4,2,4,1,6,6,6,2,7,6,5,4,1,6,4,1,5,5,2,2,2,5,5,5,5,2,3,2,2,2,1,5,1,7,7,2,3,2,3,3,5,4,4,3,4,4,5,6,5,7,5,5,5,2,4,2,3,2,2,2,2,2,2,2,3,2,2,3,2,5,3,6,3,2,2,2,1,4,2,4,2,2,2,2,4,4,4,1,2,4,4,3,3,3,1,3,4,4,3,4,2,4,2,2,4,4,2,2,2,2,2,3,3,4,2,3,3,4,3,2,4,3,4,2,4,4,3,4,3,3,3,4,4
METU,1994,2,1,1,7,1.63,68,4,1,0,0,1,5,1,2,34.6,36.4,35.5,39.91169739,32.84030151,60,9,11:00:08,3,2,2,1,NA,4,4,4,4,4,1,5,5,1,NA,2,4,1,NA,NA,1,1,NA,1,NA,NA,NA,NA,NA,NA,NA,NA,NA,NA,2,4,2,5,5,1,2,2,2,1,5,2,5,4,5,4,3,2,1,2,5,3,2,5,5,3,5,2,1,2,3,5,2,4,3,1,5,3,5,4,4,1,1,2,3,4,4,2,2,1,1,7,2,1,6,2,2,6,1,1,2,6,2,7,1,2,2,2,1,1,1,1,1,1,2,1,2,1,2,1,1,1,2,5,4,5,5,5,5,4,4,5,7,7,7,7,7,6,6,1,1,1,1,1,1,1,1,2,1,1,1,1,1,3,1,4,6,7,4,5,7,1,2,2,3,4,5,4,5,5,4,4,4,1,1,3,4,4,5,3,3,5,5,5,5,5,5,5,5,4,5,5,2,2,1,3,4,4,4,4,1,4,3,4,3,4,1,4,3,4,4,5,1,4,5,4,4,5,5
Kassel,1994,1,1,2,4,1.85,85,2,2,0,0,2,NA,1,2,35,36.1,35.55,51.31669617,9.5,78,8,09:21:45,1,1,2,1,NA,1,NA,1,NA,1,NA,2,8,2,3,2,5,1,NA,NA,1,1,NA,1,NA,NA,NA,NA,NA,NA,NA,NA,NA,NA,1,1,3,3,1,2,1,1,1,1,2,1,1,3,4,3,3,3,4,3,3,3,3,4,5,3,3,5,5,1,5,4,1,2,1,5,4,3,3,1,3,2,4,3,1,3,4,1,1,1,4,4,2,1,1,2,1,2,1,6,1,6,1,1,1,5,4,1,2,1,2,3,2,7,5,7,7,7,1,7,6,2,6,4,4,5,5,5,5,5,5,5,4,5,5,4,4,3,4,1,2,2,2,5,3,3,4,1,1,4,2,3,2,5,3,1,2,4,7,1,3,1,4,1,1,5,3,2,1,1,4,4,2,3,1,3,5,1,5,1,2,5,3,4,5,5,5,4,4,4,4,4,2,2,2,1,1,1,4,5,3,3,3,1,2,2,3,5,1,2,3,1,1,1,1,1,4,5,3
Oxford,1994,2,1,2,2,1.65,50,4,2,0,1,1,0.5,1,2,35.3,35.9,35.6,51.75,-1.25,71,1.666666667,08:50:49,5,1,2,1,NA,4,2,5,NA,2,1,4,4,1,NA,2,8,1,NA,NA,2,1,NA,1,NA,NA,NA,NA,NA,NA,NA,NA,NA,NA,2,2,2,1,1,2,3,3,2,3,2,2,2,2,2,3,2,2,4,2,2,2,2,2,3,3,2,1,1,1,1,1,1,1,1,1,1,1,1,1,1,1,1,1,1,1,1,5,3,5,5,5,6,3,5,4,3,3,2,3,2,6,4,3,3,7,4,5,3,6,6,5,5,5,3,4,5,3,5,5,2,6,5,4,4,4,4,4,2,2,3,2,5,5,5,5,6,4,4,2,2,1,2,3,3,4,2,1,3,2,4,4,4,2,4,4,4,3,2,2,1,3,1,2,3,5,4,4,2,2,4,1,2,1,2,3,4,2,4,1,1,3,4,3,4,3,4,3,3,4,4,4,3,3,3,3,2,3,2,5,4,2,1,1,1,1,2,3,2,2,2,4,4,3,2,4,2,4,1
METU,1994,1,1,2,7,1.8,65,3,2,14,0,1,2,1,2,35.5,35.8,35.65,39.91169739,32.84030151,64,6,11:16:31,3,2,2,1,NA,4,4,4,4,8,6,4,4,1,NA,2,2,1,NA,NA,1,1,NA,1,NA,NA,NA,NA,NA,NA,NA,NA,NA,NA,3,3,2,4,3,4,2,3,1,2,3,2,4,3,3,4,3,2,2,3,3,3,3,3,4,4,3,2,3,3,3,4,2,4,3,3,4,4,4,4,4,2,1,3,1,2,4,6,5,2,3,5,6,2,5,4,2,4,4,2,2,4,5,5,2,5,5,5,5,5,2,3,5,3,5,3,5,2,5,3,5,2,3,5,4,4,5,5,3,3,3,3,6,7,6,7,7,6,6,2,3,2,3,2,2,2,4,4,3,3,2,2,2,4,2,3,4,2,2,2,3,3,2,3,2,4,2,4,4,3,4,3,4,2,2,4,4,2,4,5,2,3,4,4,3,2,3,4,4,3,3,3,2,2,2,2,2,3,4,2,2,4,3,3,4,4,2,4,4,2,2,3,2,4,4,4,4,1,4
Kassel,1994,2,1,1,6,1.67,68,4,2,34,0,2,NA,1,2,34.7,36.6,35.65,51.28779602,9.470504761,71,4,09:26:21,1,1,2,1,NA,4,4,2,2,5,3,7,6,1,NA,2,6,1,NA,NA,1,1,NA,2,Kickbox-Gruppe,NA,NA,NA,NA,7,NA,NA,NA,NA,4,4,5,3,5,4,4,5,4,4,5,4,4,2,3,4,3,2,2,2,2,2,2,3,5,1,3,4,4,2,5,2,2,4,2,4,5,5,5,4,5,4,3,4,2,2,4,3,3,2,2,3,5,2,2,2,2,2,2,2,2,2,2,5,1,2,1,3,2,2,2,2,2,2,1,1,1,1,2,3,3,2,2,5,4,4,5,5,4,2,4,4,5,6,7,6,7,5,6,2,2,2,2,1,2,2,2,1,1,2,2,2,1,2,5,3,4,4,3,2,4,4,1,3,2,4,3,4,3,2,4,4,4,1,2,4,3,2,4,4,2,4,3,4,4,3,4,4,3,2,4,4,2,2,1,4,2,4,2,4,2,3,3,4,2,3,1,4,4,5,4,3,2,4,4,5,4,2,3
Oxford,1994,1,2,2,4,1.8034,63,2,2,0,0,2,NA,1,2,35.4,35.9,35.65,51.75,-1.25,74,2.777777778,08:25:17,5,1,2,1,NA,4,4,5,NA,1,NA,6,6,1,NA,1,NA,3,1,8,1,1,NA,1,NA,NA,NA,NA,NA,NA,NA,NA,NA,NA,3,5,4,2,1,1,3,3,2,4,3,4,5,2,4,1,2,3,3,5,3,4,3,4,4,4,4,5,5,4,5,4,5,5,5,5,5,5,5,5,5,5,5,5,5,4,4,7,7,6,7,7,7,4,7,7,7,1,7,7,7,7,7,7,1,7,2,3,7,6,2,1,1,3,7,7,3,7,1,7,2,3,7,5,4,4,5,5,4,4,4,4,7,5,3,2,4,4,4,4,4,1,4,4,1,4,4,3,4,4,3,3,2,3,2,2,2,1,2,2,2,2,2,1,3,5,4,1,5,5,1,2,3,2,3,4,2,2,2,2,5,2,3,2,4,4,4,4,4,4,4,3,2,2,5,1,1,4,4,3,2,2,2,3,4,2,5,4,5,3,4,4,4,4,2,4,3,1,4
VCU,1994,1,1,1,3,1.8288,74.09090909,4,2,24,0,2,NA,1,2,35.33333333,36,35.66666667,37.55380249,-77.46029663,88,10,10:54:26,5,1,2,1,NA,4,4,4,4,6,2,8,8,2,3,2,8,3,1,8,3,2,5,2,MLK middle school mentoring,NA,NA,NA,NA,6,NA,NA,NA,NA,2,3,4,2,3,4,2,3,3,4,4,3,2,3,3,3,2,2,2,2,2,3,2,3,3,3,4,4,5,4,4,4,5,5,3,5,4,4,4,3,3,3,4,3,3,5,5,3,2,1,2,3,5,1,2,2,1,2,3,4,6,4,6,5,3,2,2,5,3,2,2,2,2,4,3,3,3,3,4,3,4,2,2,4,4,4,4,4,4,3,3,3,3,3,3,3,4,4,3,2,4,2,2,2,2,3,3,4,2,2,1,3,4,3,2,2,2,2,2,2,3,2,4,2,4,4,3,2,2,5,4,2,2,3,2,2,2,4,3,2,5,4,2,3,5,5,4,4,4,4,4,3,2,3,3,4,3,3,2,4,2,2,3,2,4,2,4,4,4,4,4,3,2,5,3,3,3,3,1
Oxford,1994,2,1,2,7,1.6256,53,2,1,0,0,1,12,1,2,34.7,36.7,35.7,51.75,-1.25,71,1.666666667,08:27:10,5,1,4,1,NA,4,4,5,NA,4,1,6,6,1,NA,2,8,1,NA,NA,1,1,NA,1,NA,NA,NA,NA,NA,NA,NA,NA,NA,NA,2,2,5,1,1,2,4,3,2,4,5,1,3,4,5,5,3,3,2,3,3,2,3,4,5,2,5,2,4,3,5,2,1,4,2,5,5,5,4,4,2,2,2,3,4,1,2,7,7,7,7,2,7,7,7,7,5,6,4,6,5,7,6,7,4,5,3,2,4,6,4,5,5,4,2,3,3,2,5,5,3,3,4,3,4,3,2,4,4,4,4,4,6,4,3,3,5,5,4,4,4,2,4,4,3,4,4,3,2,4,1,4,2,2,2,5,4,1,2,2,3,4,3,3,4,4,4,2,2,2,2,4,2,2,2,4,2,2,2,2,3,4,5,5,3,3,4,3,4,2,3,3,3,4,3,2,3,4,5,5,2,3,4,2,2,3,3,4,4,2,3,4,5,3,2,4,4,2,3
Oslo,1994,1,2,2,6,1.83,67,4,2,1,1,2,NA,1,2,35.6,35.8,35.7,59.91670227,10.75,70,-5,09:35:30,4,1,2,1,NA,4,4,5,NA,4,1,8,7,1,NA,2,8,2,1,4,1,1,NA,1,NA,NA,NA,NA,NA,NA,NA,NA,NA,NA,3,2,3,5,3,2,2,3,1,2,3,2,2,4,2,4,3,3,4,2,4,3,3,2,4,3,4,4,4,2,4,3,2,5,4,5,4,4,4,5,4,2,4,3,1,4,4,7,7,7,7,6,6,2,5,6,4,6,5,6,3,3,6,6,2,5,5,6,6,6,5,5,5,6,6,2,5,6,5,4,5,5,5,3,4,4,2,2,2,1,4,5,3,6,7,6,6,5,5,2,2,1,2,2,2,2,3,4,2,2,1,4,2,3,2,5,7,6,3,6,6,6,3,3,4,4,2,1,4,4,2,5,5,1,4,5,3,4,1,5,2,2,3,5,5,5,5,5,3,5,5,3,2,4,1,5,2,4,2,1,4,4,2,4,2,2,4,4,4,4,3,4,3,3,4,2,5,5,3
METU,1994,2,1,1,2,1.6,51,5,2,NA,NA,2,NA,1,2,35.3,36.2,35.75,39.91169739,32.84030151,69,6,11:00:07,3,2,2,1,NA,2,2,3,1,4,2,5,5,1,NA,2,3,1,NA,NA,1,1,NA,2,Ankara G?n¨¹ll¨¹ Tak?m?,NA,NA,NA,NA,5,NA,NA,NA,NA,5,1,5,5,2,4,3,2,3,5,5,3,4,2,3,3,1,1,1,2,2,1,2,4,3,3,3,2,2,2,2,4,3,4,3,2,5,4,5,4,5,1,3,1,4,2,5,2,1,1,1,3,4,3,1,1,1,1,2,1,1,1,1,1,1,1,1,2,1,1,1,1,3,1,1,1,2,1,1,2,3,1,1,5,5,4,5,5,3,3,3,3,6,7,7,7,7,5,5,2,1,3,3,4,2,3,2,2,2,3,2,2,2,3,2,5,8,6,6,6,6,6,2,2,4,5,3,4,3,3,3,5,3,1,3,4,4,3,5,3,2,3,4,3,5,5,3,5,5,2,4,4,1,1,1,2,5,5,5,4,1,1,2,5,2,5,2,4,2,5,5,5,2,4,4,4,4,5,5
Oslo,1994,1,1,2,4,1.8,68,3,2,1,0,2,NA,1,2,35.7,35.8,35.75,59.91270447,10.74609375,95,1,10:30:01,4,1,2,1,NA,4,4,5,NA,1,NA,7,7,1,NA,2,5,3,1,2,1,1,NA,1,NA,NA,NA,NA,NA,NA,NA,NA,NA,NA,2,2,3,4,4,4,3,3,2,3,3,3,2,3,3,4,3,2,2,3,4,2,3,2,4,3,3,5,2,4,3,2,2,3,2,3,4,4,4,4,2,2,2,2,2,2,2,4,4,4,5,4,5,4,3,4,4,6,4,6,4,6,4,6,4,4,4,6,5,6,6,6,4,4,4,4,4,4,6,4,4,4,4,4,3,4,4,4,3,3,4,4,7,4,4,4,3,3,3,4,4,1,4,4,4,3,3,5,4,2,2,3,3,3,2,5,6,6,2,4,4,4,4,3,2,4,2,4,4,4,4,4,4,2,2,4,4,2,4,4,3,3,2,4,4,4,4,3,4,4,3,4,3,1,3,3,5,4,4,4,4,2,1,2,1,3,1,4,4,3,3,4,4,4,4,3,3,2,2
METU,1994,2,1,1,2,1.7,68,2,1,2,0,2,NA,1,2,35.5,36,35.75,39.91169739,32.84030151,56,4,10:17:18,3,2,2,1,NA,4,4,4,1,5,5,4,3,1,NA,2,8,1,NA,NA,4,1,NA,1,NA,NA,NA,NA,NA,NA,NA,NA,NA,NA,4,4,4,4,4,4,2,3,4,4,5,3,5,3,3,4,3,2,3,3,3,3,3,4,4,3,3,4,3,4,2,5,4,4,3,4,5,5,4,4,5,4,4,2,2,4,4,6,2,2,6,7,5,2,6,5,2,6,2,2,2,2,6,2,2,2,2,5,2,2,2,2,2,2,1,1,2,2,2,5,5,3,2,5,4,4,4,5,5,4,4,4,4,5,5,6,5,4,4,2,3,2,2,2,2,2,2,4,3,3,2,2,4,4,1,4,6,6,4,5,5,4,2,2,5,3,1,4,2,4,2,5,5,1,5,5,4,5,2,3,4,5,3,2,5,5,5,5,5,4,5,5,2,2,2,4,4,4,4,3,1,4,5,2,4,5,2,5,4,5,5,4,1,4,5,5,2,2,4
Oslo,1994,2,1,2,5,1.74,65,3,2,NA,2,2,NA,1,2,34.9,36.7,35.8,59.91270447,10.74609375,69,-4,10:07:23,4,1,2,1,NA,4,4,5,NA,5,3,6,6,1,NA,2,8,3,1,4,1,1,NA,1,NA,NA,NA,NA,NA,NA,NA,NA,NA,NA,2,3,2,2,2,4,1,2,1,4,5,2,1,2,1,1,2,2,1,2,2,2,3,3,2,2,2,2,1,1,4,1,2,1,4,2,4,4,2,4,2,1,2,2,1,1,1,3,5,5,5,6,2,3,4,2,2,6,4,2,1,2,6,1,1,3,2,7,3,5,2,5,4,2,5,1,3,3,5,2,3,2,5,5,5,5,5,4,4,1,4,3,6,6,7,5,5,4,3,4,2,1,2,3,2,4,2,2,2,1,1,4,1,1,1,3,4,7,3,2,3,1,1,2,3,5,2,5,4,2,5,4,1,1,1,2,4,2,2,5,4,4,5,1,5,4,5,4,4,4,2,4,2,3,3,2,1,4,1,5,3,4,1,5,2,4,1,4,4,1,2,5,1,3,4,2,3,5,1
Oxford,1994,2,1,1,4,1.6002,50,3,2,240,0,2,NA,1,2,35,36.6,35.8,51.75,-1.25,71,1.666666667,07:57:10,5,1,2,1,NA,4,4,5,NA,2,1,4,2,1,NA,2,5,1,NA,NA,3,1,NA,1,NA,NA,NA,NA,NA,NA,NA,NA,NA,NA,4,4,4,4,4,4,2,4,3,3,5,3,4,3,4,4,3,2,2,3,3,3,3,4,4,2,3,2,3,2,4,2,2,4,2,4,4,4,2,4,2,2,2,2,3,2,4,3,4,3,3,3,5,1,2,3,3,3,3,3,5,3,5,3,3,4,3,3,3,3,3,3,3,3,3,3,4,3,3,3,4,3,3,4,4,4,4,4,5,4,4,4,5,5,5,5,5,5,5,2,2,4,2,2,2,2,2,3,2,2,2,2,2,3,2,4,5,5,3,3,3,1,3,4,4,4,2,2,2,2,2,4,2,2,4,4,3,4,2,2,3,3,4,4,2,4,4,4,4,3,4,4,2,2,4,4,4,4,4,2,3,3,3,4,4,4,3,4,4,4,4,4,2,5,2,3,3,2,4
VCU,1994,2,1,1,7,1.6129,75,4,2,4,0,2,NA,1,2,35.83333333,35.83333333,35.83333333,37.55380249,-77.46029663,92,10,09:29:13,5,1,2,1,NA,4,2,5,NA,4,4,3,3,2,2,2,3,3,1,2,1,1,NA,2,Sikh Students Association,NA,NA,NA,NA,2,NA,NA,NA,NA,3,2,1,5,3,4,1,3,3,1,3,4,3,4,4,3,2,3,3,4,4,4,3,3,3,4,3,3,4,3,3,2,3,5,4,4,5,3,4,4,3,4,3,3,4,4,4,4,4,1,4,5,6,1,1,2,5,6,2,1,4,4,2,1,5,2,2,4,3,5,5,2,2,4,2,1,5,2,4,4,3,2,3,5,5,5,5,5,5,5,5,5,5,4,3,4,5,5,4,3,3,1,4,3,3,4,3,2,1,3,3,2,2,4,2,4,4,5,4,4,2,2,2,2,4,4,2,4,2,1,2,5,4,2,3,4,3,3,3,3,4,3,3,2,4,4,3,4,4,4,3,3,2,1,3,4,4,3,3,2,2,2,3,4,4,2,3,4,4,5,5,3,4,3,4,4,4,1,2
VCU,1994,2,1,1,7,1.651,66.36363636,3,2,17,0,2,NA,1,2,35.55555556,36.11111111,35.83333333,37.5809021,-77.41529846,74,16.66666667,10:48:59,5,1,2,1,NA,4,4,4,2,5,2,4,2,2,1,2,8,3,8,8,1,1,NA,1,NA,NA,NA,NA,NA,NA,NA,NA,NA,NA,3,3,3,3,5,3,5,3,3,3,3,5,3,3,3,3,3,3,3,3,3,3,3,3,4,3,3,4,4,4,4,4,4,4,4,4,4,4,4,4,4,4,4,4,4,4,4,5,2,5,6,6,6,5,3,5,5,4,4,4,2,2,5,5,5,6,4,2,2,2,3,2,4,5,4,3,2,4,2,5,6,2,6,4,4,4,4,4,4,4,4,4,7,4,4,4,4,4,4,4,4,2,3,4,4,4,4,2,3,3,2,3,2,3,2,5,6,4,5,6,6,6,4,4,3,3,1,2,2,3,4,3,3,1,4,4,4,3,2,4,3,4,3,4,4,4,2,4,3,4,3,3,2,2,3,2,4,4,3,1,4,4,5,3,4,2,4,3,4,4,4,3,4,4,4,2,2,3,2
Oslo,1994,1,1,1,7,1.83,73,2,2,NA,NA,2,NA,1,2,35.6,36.1,35.85,59.91670227,10.75,87,1,09:44:11,4,1,1,1,NA,4,4,4,1,4,3,5,1,1,NA,2,3,3,1,3,1,1,NA,1,NA,NA,NA,NA,NA,NA,NA,NA,NA,NA,4,3,4,1,3,4,3,4,4,4,3,3,5,3,3,4,3,4,5,3,2,2,3,2,4,2,4,2,3,1,3,4,1,4,1,2,4,4,4,4,4,2,1,1,4,1,4,5,5,6,6,5,5,3,6,4,5,5,6,4,4,4,5,6,1,2,5,5,2,2,2,5,3,4,2,2,4,2,3,4,3,3,3,5,3,4,4,4,3,4,3,2,4,5,4,4,2,3,5,3,3,1,3,2,4,4,3,1,4,1,2,2,3,4,3,2,3,2,1,1,2,1,2,4,4,4,1,3,1,1,4,1,2,1,4,5,2,3,5,2,1,1,5,5,3,4,1,4,3,4,4,2,1,4,2,4,1,3,5,1,5,4,4,3,4,3,2,2,4,4,4,2,3,4,3,1,3,4,3
Zurich,1994,2,1,1,7,1.67,65,4,2,1,0,2,NA,1,2,35.3,36.4,35.85,47.36669922,8.550003052,76,-1,11:01:21,1,1,2,1,NA,4,4,4,4,7,4,7,6,1,NA,2,5,3,1,8,1,1,NA,1,NA,NA,NA,NA,NA,NA,NA,NA,NA,NA,3,3,4,3,2,3,4,4,2,4,4,2,3,2,3,2,3,3,2,2,2,2,2,3,3,2,2,3,4,2,4,2,3,4,3,3,4,3,3,3,3,2,2,2,2,2,3,2,2,2,2,2,2,2,3,2,1,2,2,2,2,2,2,2,1,2,2,2,2,1,1,2,2,2,2,2,2,2,1,5,3,1,2,4,4,4,5,5,5,3,4,4,4,4,5,4,4,4,4,2,2,1,2,2,2,2,2,2,2,2,3,4,2,3,2,4,5,5,4,5,5,4,2,3,2,4,4,3,3,2,4,2,2,1,4,3,4,2,3,4,3,4,2,4,5,4,4,4,4,4,4,4,2,2,2,3,2,4,2,3,3,2,3,3,2,4,3,4,4,4,4,4,2,4,4,4,3,3,3
SMU,1994,2,1,1,7,1.61,51.5,3,2,2,0,2,NA,2,2,35.7,36,35.85,1.293106079,103.8558044,70,26,10:10:32,5,1,2,1,NA,4,4,5,NA,5,5,4,4,2,5,2,8,1,NA,NA,1,1,NA,1,NA,NA,NA,NA,NA,NA,NA,NA,NA,NA,2,1,2,4,2,3,2,2,2,2,2,2,2,4,4,4,2,4,4,3,4,3,4,4,5,3,4,4,4,2,4,4,2,3,4,3,4,4,4,4,4,2,2,2,3,4,4,1,2,1,2,2,1,2,1,2,1,2,1,2,2,1,2,4,2,1,2,3,2,1,3,2,2,3,2,2,1,2,2,3,3,2,1,4,4,4,4,4,5,4,4,4,7,6,5,6,6,6,5,2,2,1,2,4,2,3,2,2,2,2,2,2,2,3,3,5,7,5,2,3,5,6,1,4,4,4,2,4,4,2,4,4,4,1,3,4,4,3,2,2,3,4,4,3,4,4,4,4,3,4,5,5,2,2,2,2,2,2,2,3,3,2,2,4,4,4,2,4,4,4,4,4,2,4,4,4,4,2,5
Tsinghua,1994,2,1,1,7,1.58,48,2,2,1,0,2,0,1,2,35.7,36,35.85,39.92889404,116.3883057,21,11,09:42:57,7,3,2,1,0,4,4,5,0,6,4,8,4,1,1,1,1,3,1,8,4,2,1,2,NA,NA,NA,NA,NA,0,0,0,0,0,3,1,4,2,4,5,2,2,2,3,3,2,2,2,3,3,3,3,4,4,3,5,5,3,2,3,4,4,4,2,5,5,2,3,4,4,3,4,3,5,2,3,4,4,2,2,5,4,5,5,2,2,4,2,5,3,3,3,3,5,2,4,3,6,3,3,2,5,5,2,5,7,4,4,3,3,5,2,6,5,5,4,3,4,3,4,3,4,3,2,4,3,5,4,5,3,4,4,3,2,2,1,2,4,3,3,4,2,2,3,2,4,2,3,3,3,3,4,2,3,1,2,4,5,5,3,2,2,3,3,1,5,3,2,4,5,2,3,3,2,2,2,3,4,4,2,2,4,3,4,5,4,2,2,2,1,3,4,3,4,2,4,1,4,3,2,3,3,3,3,3,2,2,4,5,4,4,3,4
Zurich,1994,2,1,1,5,1.64,83,3,3,NA,NA,1,15,1,2,35.84,35.88,35.86,47.34159851,8.536895752,76,-2,19:46:38,1,1,1,1,NA,4,4,4,1,8,5,7,7,2,1,2,8,1,NA,NA,1,1,NA,1,NA,NA,NA,NA,NA,NA,NA,NA,NA,NA,3,2,1,4,2,2,2,2,3,5,2,2,2,3,5,3,2,3,2,2,4,2,3,5,4,2,4,2,5,1,5,2,1,1,1,3,3,3,2,3,1,1,1,2,2,2,2,1,1,1,1,1,4,2,2,1,1,1,1,1,1,1,1,2,1,4,3,3,6,4,4,4,2,2,2,2,1,2,2,2,4,4,2,2,3,3,3,4,4,3,4,4,5,5,6,5,5,5,3,2,3,1,4,4,4,3,2,4,2,4,1,1,2,4,3,4,3,3,2,2,1,2,2,4,2,4,3,1,1,2,2,3,2,2,3,4,2,2,4,1,5,5,5,2,4,4,5,2,2,5,2,2,1,1,3,1,1,4,1,2,4,2,4,3,2,2,3,2,4,4,4,1,4,2,1,2,1,3,4
VCU,1994,2,1,1,7,1.8542,70.45454545,3,1,0,2,2,NA,2,2,35.55555556,36.16666667,35.86111111,37.55220032,-77.45819855,57,17.22222222,11:23:50,5,1,2,1,NA,4,4,4,1,8,4,3,3,2,1,2,5,1,NA,NA,2,1,NA,1,NA,NA,NA,NA,NA,NA,NA,NA,NA,NA,4,3,4,3,3,3,5,3,4,2,4,3,3,3,4,5,2,4,3,3,4,4,2,4,4,2,3,4,4,3,4,3,3,3,3,4,3,4,4,4,4,2,2,3,3,4,4,7,5,5,5,6,5,6,2,6,2,7,5,4,4,3,5,4,1,2,2,2,1,2,2,1,2,2,3,2,3,2,2,2,2,1,3,4,5,4,4,4,4,3,3,3,6,5,4,4,7,7,6,3,2,2,3,2,2,4,2,2,2,2,2,2,3,2,4,3,3,4,3,3,3,2,3,3,2,4,4,4,4,4,4,3,2,2,2,4,4,2,5,3,3,4,4,5,2,4,3,3,3,2,2,2,2,2,2,2,5,4,4,2,2,3,4,3,3,3,1,4,4,4,3,2,1,3,4,1,3,1,4
Oslo,1994,1,1,2,6,1.81,67,2,2,NA,NA,1,1,1,2,35.6,36.2,35.9,59.91270447,10.74609375,70,-2,11:04:10,4,1,2,1,NA,4,4,5,NA,3,1,3,2,1,NA,2,8,1,NA,NA,2,1,NA,1,NA,NA,NA,NA,NA,NA,NA,NA,NA,NA,4,5,4,3,1,4,4,5,2,3,5,4,3,4,3,3,2,3,2,4,3,3,2,2,5,2,4,2,3,1,4,1,1,1,1,4,4,3,2,3,2,1,1,3,2,2,2,5,4,4,4,6,5,5,3,5,4,5,4,4,1,5,5,5,4,5,3,7,4,4,2,3,6,5,4,3,5,2,3,4,4,3,4,5,4,3,4,4,3,3,3,3,4,3,4,2,3,3,3,3,2,1,5,4,5,4,3,4,4,3,1,1,1,3,1,5,6,3,3,1,1,1,4,2,2,4,2,2,2,1,1,4,3,3,4,4,2,2,2,2,2,1,4,5,5,2,3,3,3,3,3,4,3,2,3,2,4,5,1,5,4,1,1,4,2,1,2,3,3,1,1,2,2,4,3,1,2,5,3
Poland,1994,2,1,2,7,1.65,56,4,2,29,3,2,NA,1,2,35.8,36,35.9,52.25,21,83,1,10:19:43,9,1,2,1,NA,4,4,5,1,4,4,4,4,2,1,2,5,2,1,1,1,1,NA,1,NA,NA,NA,NA,NA,NA,NA,NA,NA,NA,5,5,4,5,3,2,2,4,2,5,4,4,4,2,2,2,4,4,3,4,2,4,5,2,3,5,4,4,2,2,4,4,2,2,4,4,4,4,3,2,4,2,4,1,2,3,2,4,4,4,3,4,5,4,5,4,4,3,4,4,3,1,1,5,2,1,4,4,4,3,2,4,5,5,3,4,4,4,4,4,4,4,4,4,4,4,4,4,4,4,4,4,2,3,3,3,4,4,3,1,4,2,4,3,4,4,2,2,2,1,1,1,1,1,1,4,4,5,3,3,3,3,4,2,2,3,5,2,2,2,4,1,1,1,4,3,4,2,2,2,1,1,4,2,4,4,4,4,4,4,4,4,2,2,2,2,2,4,4,1,3,2,2,2,2,2,2,3,2,4,5,5,2,2,4,4,3,3,4
METU,1994,1,1,2,6,1.76,75,5,2,0,10,2,NA,1,2,35.5,36.3,35.9,39.91169739,32.84030151,56,4,09:41:30,3,2,2,1,NA,4,4,5,NA,3,1,6,6,1,NA,2,8,3,1,8,1,1,NA,1,NA,NA,NA,NA,NA,NA,NA,NA,NA,NA,5,4,4,4,5,5,2,4,4,5,5,3,5,1,2,2,2,2,2,2,2,2,2,2,5,2,4,4,4,2,4,5,4,2,2,4,2,3,2,4,3,4,4,4,1,1,3,5,2,2,6,6,1,6,5,3,2,3,5,2,2,2,4,5,2,5,5,5,4,3,3,2,3,3,6,3,5,2,3,6,6,1,3,5,2,4,5,4,2,2,2,2,6,5,6,6,5,4,4,4,2,1,2,1,2,1,2,1,2,1,1,1,4,5,5,3,3,2,1,1,2,1,4,2,4,3,1,2,1,3,3,4,4,2,4,5,3,4,3,5,3,3,4,3,4,1,2,2,2,2,2,3,3,1,1,3,4,4,4,4,1,4,4,4,5,2,4,3,4,3,4,3,4,4,1,2,3,2,1
SMU,1994,2,1,1,1,1.65,54,4,2,1,0,2,NA,1,2,35.9,35.9,35.9,1.293106079,103.8558044,71,26,10:35:56,5,1,2,1,NA,4,4,4,4,3,3,3,3,1,NA,2,5,1,NA,NA,1,1,NA,1,NA,NA,NA,NA,NA,NA,NA,NA,NA,NA,2,4,2,4,2,4,2,2,2,2,4,2,3,3,3,4,3,3,3,2,3,3,3,3,3,3,3,4,4,4,4,4,4,4,4,4,4,4,2,2,3,2,2,4,2,2,2,6,6,5,3,5,5,5,5,5,5,2,3,7,6,3,3,4,3,2,2,4,2,3,3,3,2,2,2,1,5,2,3,2,2,2,3,4,4,4,4,4,4,4,4,4,6,5,5,5,5,5,5,2,2,2,4,3,2,4,4,2,3,2,3,3,2,3,3,5,7,5,7,7,7,7,4,4,4,2,2,2,4,4,4,4,4,2,4,4,4,4,4,4,2,2,4,4,3,4,2,4,3,4,4,4,2,2,3,2,3,4,3,2,2,2,4,4,4,4,4,3,4,4,4,4,2,4,4,4,4,4,4
VCU,1994,2,1,1,3,1.651,69.09090909,4,2,NA,0,2,NA,1,2,36.33,35.55555556,35.94277778,NA,NA,71,10.55555556,09:57:24,5,1,2,1,NA,4,4,5,NA,3,3,4,3,1,NA,2,6,3,1,5,3,1,NA,1,NA,NA,NA,NA,NA,NA,NA,NA,NA,NA,1,4,5,5,5,5,4,5,4,4,1,4,5,2,2,4,3,3,3,4,4,4,3,3,5,3,3,1,1,1,2,1,1,1,1,1,3,1,3,3,3,1,1,1,1,1,3,2,2,1,2,2,3,2,2,3,2,2,2,1,2,2,2,1,4,2,5,5,4,2,4,3,5,6,6,5,4,4,2,5,5,5,5,5,5,5,5,5,5,5,5,5,3,3,4,3,2,3,3,2,3,2,4,2,2,2,2,5,2,2,3,2,4,4,4,2,4,2,3,3,1,1,3,3,4,4,2,3,4,4,2,4,3,3,3,3,3,4,2,3,2,3,4,4,4,2,2,3,3,3,3,3,2,2,2,2,3,4,3,3,2,3,4,4,3,3,3,4,4,2,1,3,2,5,3,3,3,3,1
Portugal,1994,1,1,2,3,1.72,67,4,2,5,0,1,12,1,2,35.9,36,35.95,38.71670532,-9.133300781,42,13,11:37:03,8,1,2,1,NA,4,4,5,1,8,6,5,5,1,NA,2,8,1,NA,NA,3,1,NA,1,NA,NA,NA,NA,NA,NA,NA,NA,NA,NA,2,2,4,4,3,2,4,2,5,4,4,3,5,1,2,2,3,3,3,3,2,2,2,3,5,2,3,1,2,1,2,2,1,1,1,3,3,2,3,2,2,1,1,1,1,2,3,2,2,3,3,2,3,3,2,5,1,1,3,1,1,2,1,1,1,3,5,2,1,3,2,1,1,2,5,1,5,1,2,7,6,1,5,5,5,5,5,5,5,4,5,4,5,5,5,5,4,5,5,2,2,1,3,2,2,1,1,2,1,1,3,5,3,5,2,5,3,2,3,2,2,2,2,4,4,3,3,3,1,2,5,4,3,3,3,2,2,4,3,3,3,4,5,3,4,3,1,3,1,4,5,3,2,2,2,1,2,4,4,3,1,2,4,3,4,3,4,4,3,4,5,3,3,3,2,3,4,2,2
SMU,1994,1,1,2,6,1.67,62,4,2,2,0,2,NA,1,2,35.9,36,35.95,1.293106079,103.8558044,70,26,09:50:39,5,1,2,1,NA,4,4,5,NA,1,NA,6,6,2,8,2,8,1,NA,NA,1,1,NA,2,Windsurfing,Crusades,Emerging Markets,NA,NA,4,12,2,NA,NA,4,4,4,4,2,4,2,3,3,3,4,4,5,4,3,3,2,2,1,2,3,2,2,3,5,2,3,3,4,3,5,2,2,3,4,4,5,4,4,4,4,3,3,3,3,3,4,5,5,4,5,5,6,3,5,2,4,3,3,4,6,4,3,5,2,5,3,3,4,3,3,3,4,4,3,3,3,3,5,3,3,3,3,4,4,4,5,4,4,4,3,3,6,6,5,5,6,6,6,1,2,1,2,2,1,2,2,2,1,2,2,1,2,2,3,4,5,5,4,3,2,5,2,4,5,3,2,3,3,4,4,4,3,2,5,4,4,5,2,3,3,3,4,4,4,3,3,4,4,4,4,4,2,2,2,3,2,5,4,2,3,4,4,4,3,3,3,4,3,4,4,4,2,4,4,4,4,2,3
Poland,1994,2,1,1,4,1.7,81,3,2,8,0,1,2,1,2,35.7,36.2,35.95,49.94979858,18.49319458,74,NA,10:50:09,9,1,2,1,NA,4,4,2,2,3,1,4,2,2,1,2,1,6,1,1,1,1,NA,1,NA,NA,NA,NA,NA,NA,NA,NA,NA,NA,3,2,2,2,2,2,1,2,2,2,2,2,2,2,3,3,3,3,3,3,4,3,3,3,4,4,2,4,4,2,4,4,3,4,4,4,4,4,4,4,4,4,4,3,4,4,4,3,2,2,3,2,3,1,2,2,1,7,3,5,2,2,5,3,2,3,3,5,6,3,4,5,3,5,3,3,6,6,5,2,4,3,4,4,4,4,4,4,5,3,4,4,3,4,5,5,5,5,5,4,4,4,4,4,4,4,4,2,4,3,2,4,3,4,3,3,4,2,3,2,4,3,2,4,2,4,1,4,2,4,3,4,4,4,4,4,4,4,4,4,2,2,4,4,2,3,2,3,3,2,2,2,4,2,4,2,3,3,4,2,4,4,4,4,4,2,2,2,4,4,2,2,4,4,2,3,4,1,5
VCU,1994,2,1,1,6,1.651,54.54545455,3,1,20,0,2,NA,1,2,36.11111111,35.83333333,35.97222222,37.55220032,-77.45819855,94,13.33333333,10:43:03,5,1,2,1,NA,4,4,4,2,4,3,6,6,2,3,2,8,3,3,6,1,2,5,2,Psychology of Women,Imperial Plaza,GSUMC (CARITAS),Disco Sports,Nannying,6,5,2,7,2,3,2,3,2,2,2,2,4,2,2,3,4,4,3,3,4,2,2,2,2,3,2,2,3,5,2,4,4,5,4,4,5,4,4,5,4,5,5,5,5,5,3,5,4,4,4,5,2,6,2,5,3,5,3,6,5,2,5,5,5,3,2,2,6,2,3,2,5,2,5,3,2,2,2,3,2,2,2,2,2,2,2,3,5,5,5,5,5,5,5,5,5,6,6,6,5,6,6,6,3,3,1,2,2,2,4,2,2,2,2,1,2,2,3,1,5,6,6,6,6,6,6,4,4,4,5,3,4,3,3,4,4,3,1,4,4,4,3,4,3,3,4,4,2,5,5,5,4,4,4,4,4,2,3,2,4,4,4,4,2,2,4,3,4,2,3,2,3,3,3,4,4,2,4,4,3,3,2,4
METU,1994,1,1,2,5,1.7,60,1,2,3,NA,2,NA,1,2,35.5,36.5,36,39.91169739,32.84030151,66,5,10:20:54,3,2,2,1,NA,4,4,5,NA,6,3,6,6,2,5,2,8,1,NA,NA,1,2,3,1,NA,NA,NA,NA,NA,NA,NA,NA,NA,NA,4,4,4,5,4,3,2,2,3,4,4,2,5,3,3,3,2,2,2,2,3,2,2,2,3,2,3,3,2,4,3,3,2,3,3,4,4,4,4,4,4,2,2,2,4,3,4,6,2,3,5,6,4,2,3,2,3,2,5,5,5,2,2,3,2,4,2,2,2,5,3,3,2,2,2,2,2,2,5,2,2,2,2,4,4,4,4,4,4,4,4,4,6,5,5,5,5,4,5,2,2,2,2,2,2,2,2,4,2,2,2,2,2,2,2,5,7,6,6,2,5,6,1,2,4,4,4,4,4,3,4,4,2,1,2,4,4,4,3,3,3,4,4,3,4,4,4,4,4,3,4,4,3,3,2,3,4,4,4,2,2,4,4,4,4,4,2,4,4,4,4,4,2,3,4,3,3,3,4
METU,1994,1,1,1,4,1.83,84,1,2,9,0,1,20,1,2,35.3,36.7,36,39.91169739,32.84030151,69,6,10:39:17,3,2,2,1,NA,4,4,4,1,4,1,4,4,1,NA,2,8,3,1,8,1,1,NA,1,NA,NA,NA,NA,NA,NA,NA,NA,NA,NA,3,2,2,4,2,3,1,2,1,2,3,1,4,4,4,5,4,3,3,4,4,4,3,4,5,4,5,4,4,4,4,4,2,4,4,4,4,4,4,4,4,2,2,4,4,2,4,6,4,5,6,6,6,6,5,6,5,6,5,3,2,3,5,6,2,2,6,5,6,5,2,2,3,3,3,2,7,3,2,4,4,2,5,4,4,4,4,4,4,4,4,4,3,6,5,6,6,2,2,2,2,4,3,2,3,3,3,4,3,3,4,2,3,2,2,3,4,6,4,4,4,3,2,2,4,4,3,4,3,3,5,4,4,2,2,4,4,3,3,4,3,4,3,2,4,4,4,4,4,4,4,4,3,3,3,4,4,5,5,2,2,4,4,2,4,3,2,4,2,4,4,4,2,3,4,2,3,2,2
VCU,1994,2,1,1,7,1.6002,56.81818182,4,2,10,0,2,NA,1,2,36.05555556,36,36.02777778,39.34300232,-76.68579865,92,12.22222222,09:44:49,5,1,1,1,NA,4,4,4,1,8,1,2,2,1,NA,2,8,3,8,8,1,2,4,2,CHS Student Leadership Council,NA,NA,NA,NA,7,NA,NA,NA,NA,3,2,2,4,3,4,2,3,2,3,3,4,4,4,3,3,2,2,2,3,2,2,2,3,5,2,2,4,4,3,4,1,2,2,1,5,3,4,4,4,3,2,4,4,3,4,3,3,2,4,7,5,3,1,5,3,2,4,5,3,5,2,5,2,1,2,1,2,2,3,1,2,2,1,1,1,1,1,1,2,2,1,2,4,4,4,4,4,4,3,5,5,7,7,6,6,7,6,6,2,1,1,1,1,2,2,2,1,2,1,1,1,2,2,1,5,7,6,4,6,6,3,2,5,4,4,1,4,3,2,2,5,4,1,4,4,2,2,4,2,2,3,3,4,4,4,3,4,4,3,4,3,2,2,2,2,4,4,4,1,1,3,3,4,2,1,2,3,4,3,2,2,1,4,2,3,2,1,4
Serbia,1994,2,1,2,7,1.76,61,3,2,31,0,2,NA,1,2,36,36.1,36.05,44.81860352,20.46809387,53,6,11:21:04,6,1,2,1,NA,4,4,5,NA,4,4,2,2,1,NA,2,4,1,NA,NA,1,1,NA,1,NA,NA,NA,NA,NA,NA,NA,NA,NA,NA,3,2,3,5,4,5,1,2,2,3,3,5,4,4,4,3,3,4,4,4,4,3,3,3,5,2,4,2,1,1,1,1,1,1,1,1,4,1,4,3,4,1,1,1,1,1,3,4,4,4,4,4,4,4,4,4,4,4,4,4,4,4,4,4,4,4,4,4,4,4,4,4,4,4,4,4,4,4,4,4,4,4,4,4,4,4,5,4,4,3,4,3,7,5,5,5,6,6,6,4,3,1,4,4,2,3,3,3,3,2,2,2,1,2,2,5,8,6,7,7,6,8,3,4,4,4,2,2,4,3,2,4,2,2,1,4,4,4,3,3,5,3,3,3,3,4,3,3,2,3,4,4,3,1,3,1,1,4,2,2,2,4,3,2,5,4,2,4,4,4,4,5,2,3,4,5,4,3,3
SMU,1994,2,1,2,7,1.65,55,4,2,0,0,2,NA,1,2,36,36.1,36.05,1.293106079,103.8558044,71,26,09:39:38,5,1,1,1,NA,4,4,5,NA,8,6,8,8,1,NA,2,8,3,1,5,1,1,NA,2,SMU Ambassadors,Emerging Markets Club,AMT,SMU DIving,NA,15,3,4,1,NA,4,3,4,4,3,5,3,4,3,4,4,4,3,2,3,3,3,3,2,2,3,4,3,3,5,3,3,2,4,2,4,2,3,4,2,4,4,3,2,3,3,4,4,4,4,3,3,2,2,2,3,6,2,2,2,2,2,6,2,2,2,3,2,2,2,2,2,3,2,2,2,2,2,2,2,2,2,2,3,2,4,2,3,5,5,5,5,5,5,5,5,5,4,5,5,5,5,5,5,2,2,2,2,2,2,2,4,2,2,2,2,2,2,2,2,5,8,5,6,6,4,6,2,3,3,3,3,3,3,3,3,3,3,3,3,3,3,3,3,3,3,4,3,2,4,4,4,4,4,4,4,4,2,2,2,2,2,4,2,4,2,2,2,4,2,2,2,4,4,4,4,4,2,4,4,5,5,3,4
METU,1994,2,1,2,6,1.73,70,3,1,0,2,1,5,1,2,36,36.1,36.05,39.91169739,32.84030151,60,9,10:36:06,3,2,2,1,NA,4,4,5,NA,8,4,8,8,1,NA,2,8,1,NA,NA,4,1,NA,2,odt¨¹l¨¹ aslanlar,odt¨¹ tekvando,NA,NA,NA,7,7,NA,NA,NA,3,3,2,3,2,2,4,2,1,2,3,2,3,4,3,2,2,3,2,3,3,2,2,3,4,2,3,4,4,4,4,4,3,4,2,4,4,4,4,4,4,3,4,4,3,3,4,5,3,3,4,2,5,5,3,4,3,4,2,2,2,2,6,3,2,4,2,4,4,5,5,5,3,6,2,2,3,2,5,2,4,2,3,4,4,4,4,4,5,4,3,3,5,6,6,6,5,5,5,2,3,2,2,2,3,3,3,3,3,2,2,2,2,2,2,4,5,5,1,3,2,2,2,3,4,5,4,5,4,4,5,4,4,1,1,3,4,3,4,4,4,4,3,2,5,5,5,4,4,4,5,2,2,2,2,3,4,4,3,2,2,2,2,4,4,4,2,4,3,4,4,4,2,4,4,4,4,4,2
Kassel,1994,2,1,1,7,1.77,62,4,2,6,2,2,NA,1,2,35.5,36.6,36.05,51.31669617,9.5,54,1,08:45:51,1,1,2,1,NA,4,4,5,NA,2,2,7,5,2,1,2,7,1,NA,NA,3,1,NA,1,NA,NA,NA,NA,NA,NA,NA,NA,NA,NA,2,3,4,4,2,4,3,4,2,3,4,2,2,2,3,3,3,3,2,3,3,3,2,3,4,2,3,4,4,2,4,4,3,4,3,5,5,4,4,4,4,2,4,4,3,2,4,5,5,3,5,7,5,4,6,5,2,5,3,3,3,5,5,5,2,2,2,5,1,2,1,1,1,1,3,2,2,3,1,3,4,1,5,4,5,5,5,5,3,2,5,5,3,4,4,4,3,3,3,2,1,2,1,2,2,2,1,2,2,2,1,2,2,3,1,5,6,6,4,3,3,6,2,2,2,5,4,4,4,3,4,2,2,1,2,4,5,1,4,2,3,5,4,4,4,5,4,4,3,4,4,5,2,2,3,2,4,5,3,3,2,2,3,4,4,2,2,3,4,4,4,3,2,4,5,5,4,4,3
Tsinghua,1994,1,1,1,5,1.73,70,4,2,2,0,2,0,1,2,35.8,36.3,36.05,39.92889404,116.3883057,22,8,09:38:22,7,3,2,1,0,4,2,5,0,5,1,5,3,1,1,2,3,1,1,2,1,2,1,1,°à¼¶,Ñ§ÉúÒÕÊõÍÅ,±çÂÛ¶Ó,¶ÁÊé»á,ÅÜ²½¾ãÀÖ²¿,20,15,7,5,5,4,4,4,4,4,4,3,4,2,4,4,4,4,2,2,2,2,2,1,2,2,2,2,2,4,1,1,4,4,3,4,4,4,2,4,4,5,4,5,3,4,3,5,4,3,3,4,6,1,2,2,3,2,3,5,3,1,2,2,4,6,2,3,2,2,6,2,4,2,2,3,3,2,2,2,3,3,2,2,3,5,3,2,5,5,5,5,5,5,5,4,5,6,2,4,6,6,6,6,2,2,4,2,2,2,3,2,3,1,3,2,5,2,4,2,4,6,6,4,5,6,6,2,4,4,4,2,2,3,3,4,3,4,2,2,2,2,2,2,4,3,4,2,4,4,4,3,5,5,4,4,4,2,2,2,4,4,4,4,3,2,4,3,4,4,2,3,4,3,4,4,2,2,4,3,4,4,4,2
Poland,1994,2,3,2,6,1.63,52,4,2,42,26,2,NA,1,2,36,36.2,36.1,51.63330078,22.8999939,57,1,11:11:23,9,1,2,1,NA,4,2,5,1,5,2,2,2,1,NA,2,8,2,1,1,1,1,NA,1,NA,NA,NA,NA,NA,NA,NA,NA,NA,NA,3,2,4,4,2,4,2,2,2,4,4,2,5,2,3,3,4,4,4,4,3,4,4,3,4,4,2,2,4,2,4,1,2,2,2,2,2,4,4,2,2,1,2,2,4,1,2,2,1,2,2,4,2,2,2,4,2,6,2,2,1,2,6,2,1,5,3,6,2,5,3,5,3,6,3,2,6,5,5,6,7,4,2,4,4,4,5,4,4,2,4,4,1,2,1,1,1,1,1,1,2,1,2,1,2,2,2,2,2,1,1,1,2,4,2,3,2,2,1,1,3,2,2,4,2,4,2,5,2,4,4,4,2,2,1,2,4,2,4,4,2,4,5,3,4,2,2,2,2,2,2,2,2,2,3,1,2,4,4,2,1,4,4,4,3,1,1,2,4,1,1,2,5,2,1,2,2,3,1
Kassel,1994,2,1,1,4,1.66,54,3,2,5,0,2,NA,1,2,35.9,36.3,36.1,51.31669617,9.5,71,1,09:32:24,1,1,2,1,NA,4,2,4,1,3,2,6,4,1,NA,2,8,1,NA,NA,5,1,NA,1,NA,NA,NA,NA,NA,NA,NA,NA,NA,NA,3,2,4,3,3,4,1,3,2,3,4,3,4,4,2,4,2,2,3,2,4,2,3,3,4,2,3,3,4,2,3,4,2,2,4,4,2,3,3,2,2,1,2,3,1,2,3,5,3,2,4,4,5,4,3,2,2,2,2,2,2,3,5,4,2,2,2,4,2,2,2,2,2,1,3,2,2,3,2,3,4,1,3,4,5,4,5,5,4,2,4,4,6,6,6,6,5,4,5,3,2,3,2,3,2,3,2,1,3,2,2,2,2,3,2,5,7,6,5,6,7,7,2,4,3,4,2,3,2,3,4,2,2,1,4,4,3,3,1,3,3,4,4,3,4,4,4,5,4,3,4,4,2,2,2,3,2,3,2,3,3,2,3,4,3,2,3,4,4,4,4,3,2,4,4,3,4,4,4
METU,1994,1,1,2,7,1.86,78,4,2,11,0,2,NA,1,2,36,36.2,36.1,39.91169739,32.84030151,62,5,10:52:28,3,2,2,1,NA,4,4,5,NA,5,5,8,8,1,NA,2,8,1,NA,NA,1,2,8,2,Gen? Giri?imciler Toplulu?u,Unifeb ODT?,NA,NA,NA,7,5,NA,NA,NA,2,5,3,2,4,3,4,4,2,2,5,2,5,2,1,2,4,2,1,3,1,2,2,2,2,1,1,4,4,4,4,5,2,4,1,4,4,2,4,4,5,2,4,2,3,4,5,5,4,5,6,7,5,6,5,6,2,6,3,2,2,1,5,1,2,2,2,2,2,6,2,2,2,3,2,1,2,2,2,2,2,2,2,5,5,4,5,5,4,3,4,5,6,5,6,6,7,6,5,2,4,1,3,1,4,4,4,4,2,1,2,2,1,4,2,3,4,5,3,1,3,3,4,1,4,5,4,2,4,5,2,4,2,1,1,5,5,2,4,4,5,5,4,2,5,5,5,5,4,4,5,4,1,2,1,2,5,5,4,2,1,4,4,5,5,5,2,4,2,4,5,5,1,4,4,5,4,2,1
METU,1994,1,1,2,3,1.8,82,2,1,NA,NA,2,NA,1,2,35.8,36.4,36.1,39.91169739,32.84030151,72,8,10:57:48,3,2,3,1,NA,4,4,5,NA,6,3,7,7,1,NA,2,8,1,NA,NA,1,1,NA,1,NA,NA,NA,NA,NA,NA,NA,NA,NA,NA,4,2,4,2,3,2,3,3,2,3,4,4,1,4,4,4,4,4,3,3,3,4,4,3,5,4,2,4,4,4,4,4,3,4,2,4,5,5,5,5,4,2,4,2,1,2,4,5,5,2,6,6,3,5,6,3,4,2,6,4,2,6,5,6,2,6,6,4,3,6,4,2,4,2,6,3,6,4,2,5,3,4,3,3,4,2,4,5,4,4,3,2,7,6,6,6,4,5,6,4,4,4,3,4,4,4,4,2,4,3,3,3,2,2,2,5,7,5,2,1,2,1,3,3,2,4,4,2,3,4,3,2,2,2,3,4,4,2,4,4,3,3,2,2,4,4,4,4,4,4,4,4,4,3,3,2,2,2,4,1,1,4,4,4,4,4,2,4,2,4,3,4,1,1,4,2,3,3,2
METU,1994,1,3,2,4,1.85,72,4,1,8,0,1,20,1,2,35.6,36.6,36.1,39.91169739,32.84030151,60,9,10:58:04,3,2,4,1,NA,4,4,5,NA,8,5,3,3,1,NA,2,8,1,NA,NA,2,1,NA,2,IEEE,Omim,NA,NA,NA,12,9,NA,NA,NA,3,2,3,1,2,4,1,2,1,2,5,2,3,4,3,3,2,3,3,3,4,3,3,3,4,1,3,4,3,4,4,4,3,4,4,4,4,4,4,4,4,3,2,2,2,4,4,6,5,5,4,4,7,6,5,5,6,6,6,6,5,1,5,4,1,4,2,3,2,2,3,3,2,2,1,1,1,2,6,1,2,2,3,5,3,4,4,5,1,1,2,3,7,6,7,6,6,6,6,4,4,4,4,4,4,4,4,4,5,4,2,3,2,3,2,3,3,5,5,5,4,3,3,2,4,5,4,4,5,3,5,5,4,1,4,5,3,4,5,5,5,5,3,2,4,5,5,5,5,5,5,5,3,3,2,4,5,5,4,2,4,5,2,3,5,5,3,4,4,5,5,4,3,2,5,3,2,5,5
Kassel,1994,2,1,2,7,1.65,88,5,1,0,0,2,NA,1,2,35.7,36.5,36.1,51.28779602,9.470504761,77,5,10:45:17,1,1,2,1,NA,4,4,5,NA,5,2,8,1,2,8,2,8,1,NA,NA,3,2,1,1,NA,NA,NA,NA,NA,NA,NA,NA,NA,NA,3,4,4,4,3,4,2,4,2,2,4,3,3,2,3,4,4,3,3,2,3,3,2,3,3,2,3,4,4,4,4,4,3,4,3,4,4,4,3,4,4,2,2,3,2,4,3,4,4,4,6,4,4,5,6,4,4,4,5,4,4,5,5,4,4,4,4,5,4,4,4,4,4,4,4,4,4,4,5,4,6,4,6,4,4,4,4,4,3,4,4,4,6,5,4,4,5,5,3,2,3,2,3,2,3,4,2,2,2,2,2,3,2,3,2,4,6,6,2,3,4,1,2,2,3,4,1,3,2,2,3,5,4,1,2,4,3,3,2,3,2,3,3,2,4,3,3,3,3,4,4,4,3,3,3,1,1,4,3,2,1,3,2,3,4,2,2,4,2,2,2,3,3,4,3,3,2,1,4
SMU,1994,1,1,2,4,1.8,70,2,2,0,0,2,NA,1,2,36.1,36.1,36.1,1.293106079,103.8558044,70,27,10:57:28,5,1,2,1,NA,4,4,5,NA,5,1,4,4,1,NA,2,5,1,NA,NA,2,1,NA,1,NA,NA,NA,NA,NA,NA,NA,NA,NA,NA,2,2,2,2,1,3,1,2,1,2,4,3,1,2,2,2,2,2,2,2,4,2,2,2,2,4,4,2,4,4,4,4,5,4,4,4,4,4,4,4,4,4,4,4,4,4,4,4,4,4,4,4,4,4,4,4,4,4,4,4,4,4,4,4,4,4,4,4,4,4,4,4,4,4,4,4,4,4,4,4,4,4,4,5,4,5,5,5,5,5,4,4,5,7,7,7,4,2,3,4,4,3,2,4,4,2,2,2,2,2,1,2,2,2,2,2,2,1,1,1,2,2,5,5,5,4,2,4,2,2,2,5,4,1,5,5,2,5,5,3,2,4,5,5,3,3,3,3,4,2,5,5,3,4,3,1,1,4,4,5,2,4,5,4,3,3,3,4,2,4,4,4,2,5,4,5,2,5,2
Tsinghua,1994,1,1,2,6,1.74,62.85,2,2,0,0,2,0,1,2,36,36.2,36.1,30.58009338,114.273407,64,12,11:27:42,7,3,2,1,0,4,4,5,0,5,2,8,6,1,1,2,8,1,1,1,1,2,1,1,Éç»áÈÏÖªÌÖÂÛÐ¡×é,±±º£µÀ´óÑ§2016Äê10ÔÂÉú,NA,NA,NA,6,7,NA,NA,NA,3,4,3,4,3,4,1,2,2,4,3,2,4,3,3,4,4,2,3,5,4,2,4,3,4,4,4,4,5,4,4,4,5,2,5,4,5,4,4,4,3,2,2,3,2,4,5,6,6,5,6,6,3,2,5,2,3,5,3,2,3,5,2,5,2,3,3,5,2,2,2,2,3,3,3,3,2,2,3,3,5,2,3,4,4,4,4,5,3,4,2,3,5,2,4,5,7,5,6,2,2,2,4,4,4,4,2,2,4,2,2,1,2,2,2,4,5,3,2,2,2,4,2,4,5,5,2,4,3,4,2,4,3,1,2,2,4,2,3,4,2,2,4,5,4,3,2,4,3,3,4,2,3,3,2,2,5,4,4,4,2,4,1,4,2,2,2,4,2,4,2,5,2,5,2,3,4,2,3
Tsinghua,1994,1,1,2,7,1.71,65,2,2,2,0,2,0,1,2,36.2,36.1,36.15,30.66670227,104.0667114,76,13,10:36:52,7,3,2,1,0,4,4,5,0,7,4,5,4,1,1,2,7,1,1,1,3,2,1,2,NA,NA,NA,NA,NA,NA,NA,NA,NA,NA,3,4,2,4,4,4,2,3,3,2,2,2,3,2,2,2,3,4,4,3,2,4,4,2,3,4,2,3,2,2,2,2,2,2,2,4,2,3,2,2,2,2,2,2,2,2,2,7,3,5,5,4,4,4,5,4,4,4,3,4,2,5,7,5,2,5,3,3,3,1,2,3,2,3,4,3,4,2,2,4,3,3,3,3,4,4,3,4,4,4,3,4,5,2,4,6,6,5,5,3,3,3,3,3,3,3,3,3,3,3,3,3,3,3,3,5,6,4,2,2,1,4,2,4,4,4,2,3,3,3,3,3,2,2,2,3,3,3,3,3,3,3,3,3,3,3,3,3,3,3,3,3,3,3,3,3,3,3,4,3,2,4,4,3,4,3,2,3,4,3,2,3,3,3,3,3,3,3,2
Oslo,1994,2,1,2,6,1.74,75,2,2,NA,NA,2,NA,1,2,35.8,36.5,36.15,59.91670227,10.75,75,0,09:29:01,4,1,2,1,NA,4,4,5,NA,4,4,7,5,1,NA,2,7,3,1,5,2,1,NA,1,NA,NA,NA,NA,NA,NA,NA,NA,NA,NA,2,2,4,5,5,4,3,3,2,3,3,4,4,3,5,5,2,2,3,3,3,3,2,3,4,1,3,1,4,2,2,4,1,1,2,4,4,4,3,4,1,1,3,2,3,1,3,5,2,1,5,4,4,4,6,4,1,5,1,1,4,6,5,7,1,1,2,5,3,2,3,3,5,3,3,3,4,2,6,1,3,5,3,5,5,4,5,5,5,5,5,5,5,4,5,3,6,4,4,4,5,1,4,2,3,5,1,2,3,4,2,1,2,2,1,5,6,4,2,4,4,4,1,3,4,4,4,2,1,2,3,1,3,1,3,4,4,2,3,3,2,3,4,2,4,3,4,1,3,4,1,4,1,2,1,3,4,3,3,4,2,3,3,4,3,2,2,4,4,3,3,4,1,1,2,4,4,3,3
SMU,1994,1,1,2,7,1.68,48,4,2,0,0,2,NA,1,2,36.4,35.9,36.15,1.293106079,103.8558044,70,26,09:58:19,5,1,2,1,NA,4,4,5,NA,5,5,5,5,2,3,2,8,1,NA,NA,1,1,NA,1,NA,NA,NA,NA,NA,NA,NA,NA,NA,NA,3,4,5,5,3,4,4,4,4,5,4,3,3,4,3,4,2,2,3,3,4,3,3,3,2,3,4,2,3,3,3,2,2,2,2,4,2,3,2,4,2,2,2,2,2,2,2,4,4,4,4,4,4,4,4,4,4,4,4,4,4,4,4,4,4,4,4,4,4,4,4,4,4,4,4,4,4,4,4,4,4,4,4,4,4,4,4,4,4,4,4,4,3,5,5,5,4,4,4,3,3,2,3,3,2,3,3,3,3,2,3,3,2,3,2,4,5,4,5,5,5,5,2,3,4,4,3,3,3,3,3,3,4,3,4,4,4,4,4,3,3,3,4,4,4,3,3,3,4,3,4,4,2,2,3,3,3,3,3,3,3,3,5,3,3,3,3,3,3,3,3,3,3,3,3,4,4,3,3
METU,1994,2,1,2,6,1.66,67,3,2,0,0,1,10,1,2,35.8,36.5,36.15,39.91169739,32.84030151,64,6,10:15:53,3,2,2,1,NA,4,4,5,NA,4,1,5,5,1,NA,2,5,1,NA,NA,1,1,NA,1,NA,NA,NA,NA,NA,NA,NA,NA,NA,NA,4,4,3,5,3,4,2,3,2,2,3,2,4,2,2,3,3,2,3,3,3,3,3,4,4,3,3,3,3,3,4,4,2,2,3,2,4,4,4,4,4,3,2,3,3,3,3,4,3,4,3,5,3,6,4,4,4,4,4,5,5,2,5,5,3,3,3,3,4,6,5,5,5,5,2,3,3,2,4,3,3,2,3,5,5,5,5,5,5,5,5,5,5,5,5,5,4,4,4,1,3,3,5,2,3,2,3,2,3,2,3,3,3,4,3,1,3,3,3,2,2,1,2,2,4,4,2,2,2,3,2,4,4,2,4,4,4,4,2,4,3,4,4,4,4,3,4,4,4,4,4,4,3,4,2,2,3,4,3,4,3,3,2,3,3,2,3,4,4,4,4,4,3,4,4,4,3,2,3
METU,1994,1,1,1,6,1.67,87,4,2,NA,NA,2,NA,1,2,36,36.3,36.15,39.91169739,32.84030151,58,7,10:32:20,3,2,2,1,NA,4,4,4,4,5,2,7,4,1,NA,2,8,1,NA,NA,1,2,8,2,biyogen,evrim a?ac?,AGT,ART,Lab toplant?lar?,7,7,7,7,7,2,2,4,2,2,3,2,4,2,1,3,2,4,4,3,4,2,2,4,4,4,2,4,3,5,1,5,5,5,5,5,5,4,4,4,4,4,3,3,4,4,4,3,2,4,2,3,5,2,3,6,6,3,6,2,1,4,2,6,4,2,2,7,5,5,5,2,2,3,6,2,3,2,2,2,2,2,2,3,1,2,2,5,5,4,5,5,5,5,5,5,5,3,6,5,4,5,5,5,5,5,2,4,5,4,5,4,2,4,5,1,5,2,4,1,2,2,2,1,2,2,1,3,2,5,3,2,2,4,5,1,5,5,5,5,5,3,5,2,4,5,5,2,3,4,3,3,4,3,3,5,5,2,2,3,4,4,4,5,2,1,5,4,4,4,4,4,5,3,5,5,5,2,2,4,5,3,2,3
VCU,1994,2,1,2,7,1.5494,58.18181818,4,2,4,0,2,NA,1,2,36.22222222,36.11111111,36.16666667,NA,NA,81,14.44444444,10:32:33,5,1,2,1,NA,4,4,5,NA,3,1,3,3,1,NA,2,4,1,NA,NA,1,1,NA,2,Discrimination Lab,NA,NA,NA,NA,10,NA,NA,NA,NA,3,4,4,4,4,3,3,2,2,3,3,4,5,3,2,5,2,3,2,2,3,2,2,2,4,2,2,2,4,2,4,2,2,2,2,2,4,4,2,4,2,2,2,2,2,4,2,2,2,2,2,2,5,2,2,3,2,6,2,2,2,2,2,2,3,2,3,2,3,2,2,2,3,3,3,3,3,3,2,3,3,3,6,4,4,4,4,4,4,2,3,4,7,5,5,4,5,5,5,2,2,1,2,2,2,2,2,2,2,2,2,2,2,4,2,3,4,2,2,2,2,3,3,3,4,4,2,2,2,4,4,2,2,2,3,4,4,4,2,2,2,2,4,3,4,4,2,4,2,2,2,4,2,2,2,2,4,4,3,4,2,4,4,4,4,4,4,3,4,4,2,2,2,4,2,2,2,2,2
VCU,1994,2,1,2,7,1.5494,63.63636364,3,2,NA,NA,2,NA,1,2,36.05555556,36.28,36.16777778,37.55220032,-77.45819855,68,10.55555556,11:14:28,5,1,2,1,NA,4,4,5,NA,8,3,8,8,2,4,2,8,3,1,8,1,2,4,2,NA,NA,NA,NA,NA,NA,NA,NA,NA,NA,3,4,4,2,3,3,4,3,3,3,3,2,2,3,4,2,3,3,2,2,3,4,4,2,3,3,3,3,3,3,3,2,3,3,4,3,1,4,3,4,4,1,3,4,4,2,2,2,3,4,2,4,2,2,2,4,2,6,2,2,2,4,5,2,2,2,2,2,2,5,2,3,4,6,2,2,2,3,2,3,2,2,2,3,4,2,2,3,3,2,2,3,5,4,4,4,2,5,3,3,4,1,4,2,3,3,4,4,3,2,2,2,4,4,4,3,3,1,2,5,6,6,2,2,2,4,4,4,3,3,4,2,2,2,2,4,4,2,4,3,2,2,2,4,4,3,3,3,3,2,3,3,3,3,4,3,4,5,3,3,3,3,2,2,3,2,3,2,3,2,4,3,3,3,2,3,3,2,4
VCU,1994,1,3,2,4,1.7272,56.81818182,3,1,4,0,1,0,1,2,36.24444444,36.12777778,36.18611111,37.55220032,-77.45819855,91,14.44444444,11:41:21,5,1,2,1,NA,4,4,5,NA,2,2,4,3,2,2,2,3,1,NA,NA,2,1,NA,1,NA,NA,NA,NA,NA,NA,NA,NA,NA,NA,2,3,3,4,2,2,4,1,3,3,4,3,4,2,3,3,3,2,3,3,3,2,3,5,4,2,2,4,4,2,3,4,2,3,3,4,5,3,2,4,3,2,2,4,2,4,3,6,5,5,6,4,6,5,5,5,5,6,4,6,5,5,4,4,3,3,3,2,3,3,3,5,2,3,3,1,5,3,6,1,5,2,3,4,3,4,2,3,4,3,4,5,6,6,6,5,7,7,5,5,3,2,4,4,5,4,4,3,4,4,2,4,2,2,4,4,6,6,6,5,6,1,2,4,4,4,2,4,4,2,2,5,4,4,3,4,4,2,3,4,4,5,4,4,4,5,5,5,3,4,3,2,2,3,3,2,4,2,2,4,3,2,2,4,2,4,2,3,3,4,4,3,2,4,4,4,3,1,3
VCU,1994,2,1,1,7,1.5494,54.54545455,5,2,0,0,2,NA,1,2,36.72222222,35.66666667,36.19444444,37.55769348,-77.37689972,52,7.222222222,10:30:31,5,1,2,1,NA,4,4,5,NA,8,5,5,4,2,1,2,5,1,NA,NA,1,2,3,1,NA,NA,NA,NA,NA,NA,NA,NA,NA,NA,3,4,4,5,5,4,3,4,4,3,5,4,4,4,2,3,4,3,2,2,2,2,2,1,5,2,2,4,4,4,4,3,3,4,2,4,5,4,5,4,3,2,2,3,2,2,5,2,1,1,2,1,2,2,1,1,1,1,1,1,1,1,1,2,1,1,1,3,1,1,1,1,1,1,1,1,1,1,1,1,1,1,1,5,5,5,5,5,5,5,5,5,4,6,4,5,5,5,5,1,5,1,1,1,1,1,1,1,1,1,2,1,2,2,1,4,5,6,2,2,1,1,3,5,4,4,1,2,4,4,3,5,4,3,4,4,2,4,2,2,3,5,3,2,3,5,4,5,5,4,4,4,1,1,3,2,5,4,4,1,1,4,4,4,3,3,4,3,5,3,3,4,2,3,2,2,2,3,2
Oxford,1994,2,1,2,7,1.61,42.54,4,2,1,0,2,NA,1,2,35.8,36.6,36.2,51.75,-1.25,88,-2.222222222,08:09:36,5,1,2,1,NA,4,3,5,NA,8,6,8,8,1,NA,1,NA,3,1,8,2,2,1,1,NA,NA,NA,NA,NA,NA,NA,NA,NA,NA,3,3,4,3,3,5,2,4,3,2,4,4,4,3,2,5,3,2,2,3,3,3,2,3,5,1,3,2,1,1,1,2,1,3,1,3,3,3,3,3,2,1,3,1,3,1,2,2,1,3,2,2,2,1,5,3,2,3,1,2,1,5,2,5,1,2,2,6,3,3,2,3,3,3,3,4,3,1,3,7,5,4,2,2,2,2,3,1,1,1,1,1,4,4,4,3,5,5,5,2,4,1,4,3,1,2,2,1,4,2,1,1,2,2,2,4,6,5,2,2,6,1,1,1,2,5,5,5,1,3,3,2,2,1,1,2,2,1,2,4,3,3,3,2,5,3,4,3,2,5,3,2,2,2,2,2,1,4,2,4,3,2,1,5,1,2,2,3,3,4,3,4,3,3,2,4,2,2,2
Serbia,1994,2,2,2,7,1.78,73,4,1,1,0,2,NA,1,2,36.1,36.3,36.2,44.81860352,20.46809387,65,8,10:37:43,6,1,2,1,NA,4,4,5,NA,6,6,5,4,1,NA,2,8,1,NA,NA,3,1,NA,2,Politi?ka stranka(ne bih da navodim njeno ime),NA,NA,NA,NA,5,NA,NA,NA,NA,4,4,2,3,2,3,2,3,2,3,4,2,3,3,3,3,1,2,2,2,3,3,2,4,5,4,2,2,1,1,2,1,1,4,3,4,4,1,1,3,3,2,1,1,1,2,1,3,2,2,2,5,3,3,2,6,1,3,1,1,4,8,2,8,1,4,NA,4,NA,4,2,8,3,NA,1,1,1,1,8,4,NA,1,NA,4,5,4,5,5,5,4,4,5,6,7,7,7,6,5,5,2,2,1,2,2,4,4,1,1,1,2,2,2,2,3,3,4,3,5,1,1,3,3,1,5,3,2,1,5,1,2,3,5,5,4,4,4,4,4,4,3,3,4,4,4,5,3,1,1,1,3,5,2,3,2,2,1,4,3,5,5,1,3,1,3,4,1,1,3,4,1,1,4,5,5,2,3,3,3,2
METU,1994,1,1,1,6,1.8,84,2,2,8,0,1,20,1,2,35.9,36.5,36.2,39.91169739,32.84030151,62,5,10:51:06,3,2,2,1,NA,4,4,4,1,3,2,7,7,1,NA,2,5,3,4,3,1,1,NA,1,NA,NA,NA,NA,NA,NA,NA,NA,NA,NA,3,2,1,1,1,3,1,2,2,1,2,1,3,3,3,3,1,2,2,3,3,1,2,3,4,3,3,2,2,2,3,2,2,3,1,4,3,4,2,3,2,2,2,2,2,4,2,3,3,3,3,3,3,3,4,2,3,1,3,3,6,3,3,4,2,3,3,2,2,4,4,3,3,2,2,2,6,2,3,5,4,4,3,5,5,5,5,5,5,5,5,5,7,4,5,4,6,3,7,3,4,2,3,2,3,5,4,3,4,2,2,3,4,4,1,1,3,2,2,2,4,1,4,4,3,4,3,2,2,3,3,4,4,3,4,4,4,3,4,5,3,3,4,3,4,4,4,4,4,4,4,4,4,2,3,2,2,3,3,4,2,3,3,4,3,4,2,3,4,4,4,4,4,4,4,4,4,3,4
METU,1994,1,1,1,6,1.75,70,4,2,2,0,2,NA,1,2,36,36.4,36.2,39.91169739,32.84030151,71,8,10:27:00,3,2,2,1,NA,4,4,5,NA,6,6,8,4,1,NA,2,8,1,NA,NA,1,1,NA,2,odt¨¹ tenis toplulu?u,NA,NA,NA,NA,2,NA,NA,NA,NA,4,4,5,4,4,4,3,4,4,4,4,4,5,2,3,3,2,3,2,3,2,3,3,3,4,3,2,2,3,4,3,3,2,2,1,4,4,4,4,4,4,2,2,2,3,3,3,5,2,2,2,4,2,4,3,2,2,2,4,2,2,2,3,3,1,1,2,2,2,6,2,2,2,2,2,2,2,1,2,2,2,2,2,5,5,5,5,5,4,4,4,4,5,5,4,5,4,5,6,3,2,2,4,2,2,1,3,1,3,2,3,3,4,3,4,3,3,3,1,2,2,2,2,2,2,5,4,4,4,4,4,4,3,3,2,4,4,2,3,1,4,4,4,3,4,5,4,4,5,4,4,4,2,4,2,4,4,5,4,2,2,4,3,4,4,1,2,3,3,4,4,4,4,4,2,2,3,2,2
Tsinghua,1994,2,1,1,4,1.63,56,3,2,0,0,2,0,1,2,36.3,36.1,36.2,30.66670227,104.0667114,62,15,11:10:57,7,3,2,1,0,4,2,5,0,4,6,5,3,1,1,2,8,1,1,1,8,2,1,2,na,na,na,na,na,NA,NA,NA,NA,NA,3,3,4,4,4,2,3,4,3,4,4,4,3,2,3,3,3,3,2,2,3,2,4,2,4,2,2,2,3,2,3,3,3,2,3,4,4,2,3,3,2,2,3,4,2,3,3,2,2,2,2,4,2,2,2,2,4,2,2,4,2,2,2,2,2,2,2,2,2,2,2,2,2,2,2,2,2,2,2,2,2,2,2,4,4,4,4,4,4,4,4,4,3,2,4,5,4,3,3,3,3,3,2,4,2,4,2,2,3,3,2,3,2,3,2,4,5,5,3,4,2,5,2,4,4,4,2,3,3,3,3,2,2,4,3,4,2,3,2,4,3,2,3,3,4,4,4,4,3,4,4,3,2,2,2,4,3,4,3,3,2,4,3,3,4,4,3,4,4,4,4,4,2,2,4,4,3,2,4
METU,1994,2,1,1,7,1.62,57,4,2,0,6,2,NA,1,2,35.7,36.7,36.2,39.91169739,32.84030151,64,2,10:25:38,3,2,2,1,NA,4,4,2,1,5,4,3,2,1,NA,2,8,1,NA,NA,1,1,NA,1,NA,NA,NA,NA,NA,NA,NA,NA,NA,NA,3,5,3,5,2,4,1,3,1,2,2,3,4,3,4,4,3,3,3,3,4,3,3,5,5,2,4,3,4,4,4,5,3,4,2,5,5,5,5,5,5,1,2,2,3,3,5,7,5,6,7,6,7,6,5,6,5,6,2,2,1,2,7,2,1,1,2,5,3,2,2,5,2,1,2,1,2,1,2,5,5,2,2,4,4,4,4,4,4,2,3,3,6,5,5,5,6,6,6,3,2,3,2,2,4,2,2,4,2,2,2,1,3,2,2,5,6,5,1,4,4,1,1,1,5,5,2,4,5,3,4,5,4,1,3,4,4,3,4,4,4,4,4,5,3,5,4,5,3,3,4,4,1,4,1,2,4,4,2,3,2,4,4,4,3,3,1,4,2,5,4,4,2,5,4,2,4,1,4
UCSB,1994,1,1,1,7,1.5494,70.45454545,5,1,2,0,2,NA,1,2,36.05555556,36.38888889,36.22222222,34.0184021,-119.7252045,57,6.111111111,NA,5,1,2,1,NA,4,2,4,1,8,1,8,8,1,NA,2,6,3,1,7,1,1,NA,1,NA,NA,NA,NA,NA,NA,NA,NA,NA,NA,4,4,1,4,2,4,4,3,1,3,4,3,5,2,2,3,1,3,1,3,2,3,2,2,4,3,3,4,4,2,4,3,3,2,4,4,4,4,4,4,3,1,2,2,2,1,4,3,3,3,2,2,6,5,3,3,1,3,1,3,2,4,6,2,1,2,1,1,1,1,1,1,1,1,1,1,1,1,1,1,1,1,1,5,4,5,5,5,5,5,5,5,5,6,5,4,6,5,5,1,1,1,1,1,2,1,1,2,2,1,1,1,1,3,1,3,3,5,2,3,3,2,1,4,5,4,1,2,4,5,4,4,4,1,5,3,3,4,2,2,4,3,4,2,4,4,4,4,4,4,4,4,2,2,2,2,4,4,4,2,2,2,5,2,2,2,3,3,4,2,2,3,2,4,3,3,3,1,3
METU,1994,1,1,2,5,1.8,87,4,2,2,0,1,20,1,2,36.2,36.3,36.25,39.91169739,32.84030151,62,5,10:08:04,3,2,2,1,NA,4,4,5,NA,3,3,3,3,1,NA,2,8,1,NA,NA,1,1,NA,1,NA,NA,NA,NA,NA,NA,NA,NA,NA,NA,1,2,5,4,3,2,1,1,3,3,4,2,3,3,3,4,3,2,2,3,4,3,3,3,4,3,2,1,1,1,1,2,2,2,1,1,4,1,3,4,3,1,1,1,1,1,3,6,2,6,2,2,5,2,2,2,5,2,6,2,1,5,2,2,2,3,2,3,5,2,5,5,2,5,5,6,2,2,6,3,6,5,6,5,4,5,5,4,3,1,4,3,7,7,7,7,7,7,7,2,3,2,2,4,2,3,2,1,3,1,1,1,4,3,2,3,4,1,1,1,2,3,4,4,4,4,3,2,2,2,2,4,2,3,2,2,4,2,4,4,3,4,4,3,4,4,4,3,3,3,3,3,2,2,4,2,1,3,2,1,4,3,2,4,2,4,1,3,1,4,4,4,2,4,3,3,2,2,2
VCU,1994,2,1,2,7,1.524,58.18181818,4,2,6,0,2,NA,1,2,36.33333333,36.16666667,36.25,37.55220032,-77.45819855,97,11.11111111,21:38:06,5,1,2,1,NA,4,4,5,NA,3,1,3,3,1,NA,2,5,1,NA,NA,2,1,NA,2,internship,NA,NA,NA,NA,12,NA,NA,NA,NA,2,3,4,4,2,3,4,3,3,4,2,3,4,3,2,4,3,2,3,3,2,2,4,3,5,2,4,4,4,2,4,3,1,1,3,1,4,3,3,2,2,3,1,1,2,2,2,2,4,2,2,2,4,2,3,6,2,3,2,2,2,1,3,2,3,4,3,4,3,3,3,2,2,6,2,1,1,3,4,3,4,3,3,4,4,4,4,4,3,2,2,4,6,6,5,4,5,4,4,2,4,2,4,3,2,3,2,2,2,2,2,2,2,2,2,4,4,4,1,1,1,3,5,1,4,4,3,1,4,5,1,4,2,2,2,4,4,3,2,2,3,2,4,4,4,5,3,4,3,3,4,4,3,2,2,1,4,4,2,2,2,2,3,2,2,2,4,3,4,4,2,2,2,2,4,3,3,2,2
Oxford,1994,2,1,2,7,1.55,46.5,5,2,0,0,2,NA,1,2,35.8,36.7,36.25,51.75,-1.25,88,-2.222222222,08:12:33,5,1,2,1,NA,4,2,5,NA,4,1,8,5,1,NA,2,8,1,NA,NA,4,1,NA,1,NA,NA,NA,NA,NA,NA,NA,NA,NA,NA,4,4,3,4,5,4,2,3,4,3,3,4,4,3,3,4,3,2,2,2,2,3,3,2,4,2,3,2,4,1,4,4,2,2,2,3,2,2,3,2,2,1,2,1,1,2,1,3,3,5,3,5,2,2,5,5,3,3,3,4,5,5,3,5,3,2,2,3,2,3,5,5,3,3,3,2,2,2,3,3,5,3,4,5,5,5,5,5,5,4,5,5,7,6,5,5,6,6,5,3,4,2,2,2,2,2,4,2,2,2,1,2,2,2,2,4,3,3,2,2,2,3,1,4,2,5,4,4,2,3,4,4,2,1,2,4,5,2,3,2,2,4,5,4,3,3,3,3,4,2,4,4,3,2,3,3,4,2,4,3,2,2,4,3,4,4,2,4,4,4,3,3,2,4,4,4,4,2,4
Oslo,1994,1,1,1,6,1.74,75,2,2,NA,NA,2,NA,1,2,36,36.5,36.25,NA,NA,48,0,11:01:03,4,1,1,1,NA,4,4,4,1,5,3,4,4,1,NA,2,8,1,NA,NA,1,1,NA,1,NA,NA,NA,NA,NA,NA,NA,NA,NA,NA,2,3,2,2,2,3,2,2,3,3,3,4,3,4,3,5,3,2,4,2,4,3,3,2,5,3,4,3,4,2,3,2,2,2,3,4,3,3,3,4,2,3,2,4,1,4,3,5,2,2,4,4,4,2,6,2,2,2,5,5,1,5,2,2,1,4,2,4,3,3,3,2,2,2,4,2,5,2,2,2,2,2,2,4,4,3,4,3,3,3,3,4,6,4,4,3,4,4,3,4,4,1,4,3,2,3,4,3,4,3,2,2,2,4,3,4,3,3,2,2,4,3,1,3,2,5,4,3,3,3,3,4,3,2,2,4,4,2,4,4,2,2,3,4,4,4,3,5,2,3,4,4,2,2,2,2,2,2,2,1,3,2,2,4,4,3,2,3,3,4,3,3,2,2,2,2,3,4,2
Oxford,1994,1,3,1,6,1.81,70,3,2,0,0,2,NA,1,2,35.9,36.6,36.25,51.75,-1.25,71,1.666666667,08:44:54,5,1,2,1,NA,4,2,5,NA,4,1,3,1,2,7,2,4,1,NA,NA,1,1,NA,1,NA,NA,NA,NA,NA,NA,NA,NA,NA,NA,3,4,3,3,4,5,2,2,2,3,3,4,4,3,3,3,2,2,2,2,3,2,3,2,4,2,3,3,4,2,4,3,2,3,2,3,4,2,2,2,2,2,4,3,3,2,3,3,2,2,2,2,4,2,2,4,2,4,2,3,2,2,2,5,2,3,2,3,2,2,2,2,2,2,2,2,3,2,2,2,2,2,2,4,4,4,4,4,3,3,3,4,5,5,4,4,4,4,5,2,3,2,2,2,2,3,2,2,2,2,3,3,2,2,2,4,3,4,2,2,2,2,3,3,4,3,3,2,3,2,2,3,2,2,4,3,3,3,3,3,2,4,3,3,4,4,4,4,3,4,4,4,2,2,3,2,2,3,3,3,2,3,2,3,2,2,4,3,2,2,2,2,3,2,2,2,2,4,2
VCU,1994,2,1,2,6,1.7018,66.81818182,4,2,1,0,2,NA,1,2,35.77777778,36.72222222,36.25,37.51600647,-77.50050354,91,14.44444444,10:18:32,5,1,2,1,NA,4,4,5,NA,4,2,4,4,1,NA,2,8,1,NA,NA,3,1,NA,2,Tri Sigma,NA,NA,NA,NA,5,NA,NA,NA,NA,3,2,4,4,2,3,4,4,1,3,4,3,4,3,3,4,3,3,2,3,3,3,3,3,3,3,3,4,4,4,4,3,3,2,2,4,4,4,4,4,4,2,2,2,2,2,4,5,4,3,5,6,6,5,4,4,2,5,3,2,3,2,6,5,3,5,3,5,3,5,3,4,3,3,3,3,3,3,2,3,3,3,5,4,4,4,4,4,4,3,3,4,4,7,6,6,6,4,7,4,4,2,4,3,2,3,4,5,2,2,2,4,3,3,2,2,2,6,2,3,3,2,2,2,4,4,2,4,2,3,4,4,2,2,3,4,2,3,4,3,3,4,4,3,4,4,3,3,3,4,3,2,2,4,3,2,4,4,4,2,2,4,4,4,4,2,4,4,4,2,3,3,2,4,4,3,3,4,2
METU,1994,2,1,1,4,1.59,49,4,2,3,0,1,20,1,2,35.8,36.7,36.25,39.91169739,32.84030151,69,6,10:53:58,3,2,2,1,NA,4,4,4,1,2,2,3,3,1,NA,2,8,1,NA,NA,1,1,NA,1,NA,NA,NA,NA,NA,NA,NA,NA,NA,NA,4,3,5,2,2,3,3,4,5,5,5,3,4,3,3,3,2,2,2,2,2,2,2,3,4,1,2,3,4,3,4,3,3,5,1,5,3,5,3,4,4,4,4,4,1,3,4,6,7,6,6,7,7,6,7,7,4,7,7,2,1,7,7,6,2,6,4,6,6,6,6,6,6,5,2,4,3,3,7,6,6,3,3,4,5,4,4,5,5,5,5,5,7,4,3,3,5,5,5,3,3,2,3,3,2,4,3,2,3,2,3,2,2,5,1,3,2,2,1,2,1,1,1,4,1,4,5,5,2,3,5,1,2,1,1,2,5,1,5,5,2,2,2,2,3,3,4,3,5,3,2,4,3,1,2,3,5,4,5,1,2,5,4,2,5,2,1,1,3,2,1,5,2,5,4,4,3,2,2
SMU,1994,2,1,2,7,1.67,53,5,2,0,0,2,NA,1,2,36.3,36.2,36.25,1.293106079,103.8558044,70,26,10:03:05,5,1,2,1,NA,4,4,5,NA,4,1,3,2,1,NA,2,8,1,NA,NA,1,1,NA,1,NA,NA,NA,NA,NA,NA,NA,NA,NA,NA,4,3,3,3,3,5,2,3,2,3,4,2,3,4,2,4,2,2,1,4,2,2,1,3,5,2,4,4,4,2,5,4,3,3,5,4,3,3,3,3,3,3,3,5,3,3,3,6,3,5,5,3,5,3,3,4,3,3,5,4,4,4,3,3,5,4,3,4,3,5,5,4,3,2,3,2,2,2,5,3,3,2,4,5,5,5,5,5,5,5,5,5,2,7,7,7,5,5,6,3,4,3,3,3,3,4,4,3,3,3,2,4,2,3,3,3,2,4,1,4,5,4,5,3,5,5,4,4,3,3,4,4,3,2,4,5,5,3,3,4,3,5,5,5,5,5,5,5,5,3,4,3,1,1,2,1,1,1,2,1,1,4,5,5,5,2,3,3,3,2,3,2,3,3,3,3,3,3,3
VCU,1994,2,1,1,7,1.5748,54.54545455,3,2,10,0,2,NA,1,2,36.22222222,36.33333333,36.27777778,38.86399841,-77.19219971,85,10.55555556,10:20:01,5,1,2,1,NA,4,4,5,NA,4,2,2,2,1,NA,2,5,1,NA,NA,1,1,NA,1,NA,NA,NA,NA,NA,NA,NA,NA,NA,NA,2,4,1,2,3,2,4,3,3,3,4,3,4,2,2,3,2,2,2,2,2,2,2,2,4,2,2,2,2,2,4,2,1,1,2,4,2,2,2,2,2,2,2,2,2,2,2,1,1,2,1,5,2,1,1,2,2,2,5,2,3,1,2,1,1,5,1,5,1,1,5,1,2,2,2,3,2,2,2,1,3,1,2,5,4,5,4,4,4,4,4,5,4,7,4,5,5,4,4,1,4,1,4,1,1,1,2,1,1,2,2,1,1,2,1,5,6,5,3,2,2,4,2,2,4,4,2,2,4,4,4,4,4,2,4,4,4,4,2,4,2,2,4,3,3,4,3,4,3,3,4,3,2,4,3,4,5,3,4,3,2,4,4,4,4,2,2,4,4,2,2,4,4,4,2,4,3,2,4
VCU,1994,1,1,2,7,1.778,81.81818182,4,2,0,0,2,NA,1,2,36.22222222,36.33333333,36.27777778,37.55380249,-77.46029663,61,2.777777778,10:09:01,5,1,2,1,NA,4,4,5,NA,3,2,2,3,2,1,2,8,3,1,5,1,1,NA,1,NA,NA,NA,NA,NA,NA,NA,NA,NA,NA,3,2,2,4,4,4,4,4,2,2,4,2,4,3,4,4,2,3,2,3,3,2,2,3,4,4,3,5,4,1,4,3,2,4,4,4,4,2,4,4,2,4,2,2,2,4,4,4,4,2,3,5,5,3,5,3,2,5,4,3,5,4,2,5,2,5,5,5,3,3,3,3,3,3,5,3,4,3,3,3,3,3,3,3,2,4,4,4,2,2,2,2,3,2,2,2,2,2,2,2,4,2,4,2,2,4,4,2,2,1,2,2,2,4,5,3,3,3,3,3,3,1,2,4,4,4,4,4,1,2,2,4,4,1,1,4,4,2,2,4,2,3,4,2,4,4,4,4,2,4,3,2,2,4,4,2,4,4,2,3,2,2,2,2,2,2,4,4,4,4,4,1,2,4,4,1,4,2,4
VCU,1994,1,2,2,7,1.778,79.54545455,3,2,0,14,2,NA,1,2,36.28,36.28,36.28,37.53419495,-77.15519714,94,13.33333333,10:14:34,5,1,2,1,NA,4,4,2,2,8,4,4,4,1,NA,2,5,1,NA,NA,1,2,3,1,NA,NA,NA,NA,NA,NA,NA,NA,NA,NA,2,3,3,3,4,4,2,3,3,4,3,5,4,2,3,3,2,3,2,2,2,3,2,3,4,2,2,4,4,2,4,2,2,2,2,4,4,4,4,4,2,2,2,2,4,2,4,2,5,4,2,4,6,3,5,5,2,3,3,2,2,5,5,5,2,2,3,3,2,2,2,2,3,2,3,3,3,4,3,2,3,2,5,5,5,5,5,5,5,4,5,4,3,4,3,3,3,3,2,2,2,2,2,2,2,2,2,2,2,2,3,3,2,3,2,3,3,3,3,4,2,2,4,4,4,4,2,2,4,3,3,4,4,4,4,4,2,4,4,2,4,4,4,4,2,4,4,4,2,4,4,2,2,2,4,4,4,4,3,2,4,4,4,4,4,3,4,4,5,2,3,4,2,4,2,3,3,4,4
Serbia,1994,2,3,2,7,1.7,52.2,5,2,4,4,2,NA,1,2,36.4,36.2,36.3,44.81860352,20.46809387,45,12,10:37:23,6,1,2,1,NA,4,2,5,NA,4,4,7,7,1,NA,2,8,1,NA,NA,1,1,NA,1,NA,NA,NA,NA,NA,NA,NA,NA,NA,NA,4,4,2,4,4,3,3,2,2,4,3,4,4,3,2,3,2,3,3,4,2,2,2,2,5,1,2,1,1,1,3,1,1,1,1,3,4,1,3,1,3,1,1,1,1,1,3,8,5,5,5,5,8,8,8,6,3,6,1,1,1,5,3,7,1,1,1,4,1,1,1,1,3,1,1,1,1,1,1,4,4,1,NA,5,5,5,5,5,3,3,5,3,5,5,5,5,5,5,5,1,1,1,1,1,1,2,2,2,1,1,2,3,2,2,2,3,3,7,3,3,3,3,2,2,1,5,1,3,2,3,3,5,4,1,2,3,4,3,4,3,1,5,2,4,5,3,1,1,1,1,3,1,3,4,1,1,5,5,2,5,3,1,3,5,3,1,1,2,5,1,1,1,5,1,5,1,1,4,5
Kassel,1994,2,1,1,6,1.64,56,2,2,2,NA,1,6,1,2,36,36.6,36.3,49.14230347,9.223403931,NA,NA,08:31:38,1,1,2,1,NA,4,3,4,1,1,NA,5,4,1,NA,2,8,1,NA,NA,1,2,1,1,NA,NA,NA,NA,NA,NA,NA,NA,NA,NA,2,3,4,3,3,2,3,4,4,2,4,5,4,2,3,3,2,3,2,3,2,3,2,3,4,4,3,2,2,2,2,2,2,2,2,2,2,2,2,2,2,2,2,2,2,2,2,4,3,5,4,4,3,4,4,3,3,5,3,5,3,3,3,3,3,3,4,3,3,3,3,3,3,3,4,4,3,3,3,4,4,4,4,3,3,3,3,3,2,2,2,3,3,2,2,2,2,2,2,2,2,3,2,2,2,2,3,2,2,2,2,2,2,3,2,2,4,3,2,3,1,1,4,4,3,4,1,2,2,4,3,4,4,3,2,4,4,2,2,4,2,4,2,4,4,3,2,3,2,2,2,2,2,2,2,2,2,3,4,2,2,3,4,3,2,2,2,3,4,3,2,2,3,2,2,2,2,2,2
Oxford,1994,2,2,1,4,1.65,52,3,2,0,0,2,NA,1,2,35.6,37,36.3,51.75,-1.25,74,2.777777778,09:02:11,5,1,2,1,NA,4,4,5,NA,6,1,8,8,1,NA,2,8,1,NA,NA,5,2,6,2,University,Volunteer,Neighbors,NA,NA,7,5,4,NA,NA,1,1,1,3,1,4,1,1,1,4,3,2,3,3,2,2,2,2,2,2,3,3,5,3,4,3,3,1,4,4,4,1,1,3,1,4,2,1,3,3,2,1,1,1,1,1,1,5,4,5,4,4,2,4,4,4,3,3,2,4,4,2,2,4,2,7,6,7,4,6,6,5,6,6,3,2,5,3,6,4,6,3,2,5,5,5,5,4,1,1,1,4,4,5,5,7,4,7,4,5,4,1,5,4,2,4,5,2,4,2,2,4,3,5,2,5,5,4,1,2,5,1,2,4,4,4,3,3,2,1,3,5,3,2,3,5,5,2,4,5,4,3,5,4,5,5,4,3,3,3,2,4,2,2,2,1,1,5,1,4,3,2,3,2,3,4,2,5,4,5,5,5,2,5,4,4,4,1,5
VCU,1994,2,1,1,7,1.524,63.63636364,3,2,8,0,2,NA,1,2,36.5,36.11111111,36.30555556,37.61410522,-77.44200134,92,10,11:20:13,5,1,1,2,1,4,2,4,2,3,5,8,8,2,1,2,4,3,3,3,1,2,5,1,NA,NA,NA,NA,NA,NA,NA,NA,NA,NA,4,4,5,3,4,4,3,4,1,4,4,4,3,3,3,3,3,2,2,3,2,2,2,3,4,2,3,3,3,3,3,3,4,3,3,3,4,3,4,4,4,3,3,3,3,2,4,7,3,1,1,1,4,1,1,2,1,6,2,6,2,2,4,1,3,2,2,1,2,2,1,2,2,4,2,2,3,3,1,2,2,1,2,5,5,5,5,5,3,2,3,3,2,4,4,4,4,4,4,3,4,3,3,4,3,3,3,3,3,2,3,3,3,3,3,2,7,4,3,3,1,4,4,4,2,3,3,4,3,4,4,4,4,2,2,3,4,2,2,2,3,2,2,3,4,5,3,4,3,3,4,2,2,2,3,4,4,4,3,1,5,4,4,2,4,4,2,3,4,5,5,3,3,5,5,4,4,3,3
VCU,1994,2,1,2,4,1.524,63.63636364,3,1,0,0,2,NA,1,2,36.33333333,36.33333333,36.33333333,37.55220032,-77.45819855,91,14.44444444,09:26:25,5,1,2,1,NA,4,4,5,NA,8,4,8,8,2,1,2,7,1,NA,NA,1,2,2,2,Alpha Gamma Delta,NA,NA,NA,NA,75,NA,NA,NA,NA,4,3,5,5,3,3,3,3,4,4,5,2,5,2,3,3,2,2,1,3,3,2,2,4,4,2,3,2,2,2,4,2,2,2,2,4,4,4,5,4,2,1,1,1,4,2,2,2,1,2,1,2,1,1,1,2,3,1,1,2,2,1,3,2,3,2,2,4,3,2,2,3,2,3,3,2,5,3,2,3,3,2,2,5,5,5,5,5,4,2,4,4,6,5,5,5,7,7,6,2,2,2,2,2,4,2,2,2,1,1,2,2,1,1,2,4,3,6,2,2,3,3,4,4,4,4,3,1,4,2,5,2,2,1,4,4,2,4,1,2,2,3,3,4,4,4,4,3,4,3,4,4,2,2,3,1,4,5,4,4,2,3,2,4,2,2,4,4,4,2,2,2,4,4,1,4,2,2,4
VCU,1994,2,1,1,7,1.5748,50,4,2,4,0,2,NA,1,2,36.22222222,36.44444444,36.33333333,37.55220032,-77.45819855,64,10.55555556,09:33:44,5,1,2,1,NA,4,4,5,NA,3,1,8,8,1,NA,2,2,3,1,8,1,2,2,2,Sorority,NA,NA,NA,NA,14,NA,NA,NA,NA,4,3,3,5,4,3,2,3,4,3,5,5,5,3,2,4,1,2,2,2,3,3,3,3,5,1,3,2,4,2,5,2,2,2,4,2,4,4,4,5,2,1,1,1,1,2,4,2,5,2,2,1,5,5,5,5,1,5,2,1,1,1,1,1,1,4,5,3,5,2,2,2,2,4,3,2,3,3,2,3,3,3,2,5,4,5,5,3,4,2,3,3,5,6,6,6,5,4,5,2,4,2,4,2,4,2,2,3,2,2,2,2,2,3,4,4,3,1,1,1,2,1,1,1,1,5,5,5,2,2,1,3,1,3,1,2,5,1,5,4,2,4,5,4,4,5,5,5,2,4,3,2,1,2,1,4,5,4,4,1,1,4,4,4,2,4,1,2,4,4,3,4,2,5,5,3,4,1,4
SMU,1994,2,1,2,7,1.63,50.2,3,2,1,0,2,NA,1,1,36.4,36.3,36.35,1.293106079,103.8558044,71,26,10:43:46,5,1,2,1,NA,4,4,5,NA,1,NA,6,6,2,8,2,4,1,NA,NA,5,1,NA,1,NA,NA,NA,NA,NA,NA,NA,NA,NA,NA,4,4,2,5,5,5,1,4,2,3,3,5,4,2,1,3,1,3,3,3,3,1,5,1,4,2,3,3,3,2,2,2,2,2,2,4,5,4,4,2,5,2,2,2,1,2,5,2,2,2,5,3,2,6,2,1,3,1,2,2,7,2,3,3,1,2,3,4,4,2,6,6,5,3,1,2,5,2,7,5,5,4,3,5,5,5,5,5,5,5,5,4,3,7,6,6,2,6,6,2,2,4,3,2,3,2,2,4,2,1,2,2,4,4,2,2,2,5,2,6,6,5,2,2,4,4,1,4,1,1,5,5,2,2,5,5,2,4,3,4,1,1,5,5,2,5,1,3,3,2,3,3,2,2,3,4,1,2,4,2,2,5,5,3,4,2,2,4,4,4,2,4,4,4,2,4,4,3,5
Tsinghua,1994,1,1,1,1,1.65,62,5,2,3,2,1,8,1,2,36.5,36.2,36.35,30.58009338,114.273407,78,17,10:03:23,7,3,2,1,0,2,1,5,0,7,4,4,2,2,8,2,5,3,1,1,1,2,1,1,NA,NA,NA,NA,NA,NA,NA,NA,NA,NA,2,2,4,4,3,2,1,1,4,5,5,3,4,4,4,4,2,2,2,2,2,2,2,3,4,2,2,3,3,1,3,2,3,5,4,3,3,3,3,3,3,3,3,3,3,3,3,7,1,1,1,7,2,3,2,4,2,1,4,1,1,1,4,4,4,2,1,1,1,1,1,1,3,1,1,1,1,2,1,1,2,1,1,5,5,5,5,5,5,5,5,5,7,1,5,7,6,6,6,1,3,4,3,1,4,3,3,4,2,5,2,1,1,4,3,4,3,1,1,1,2,1,1,5,4,4,1,5,1,1,5,4,4,1,2,2,2,2,2,3,5,3,2,2,5,5,5,5,5,2,3,2,2,2,4,2,2,5,1,1,1,4,4,5,5,3,3,2,4,1,4,2,2,3,5,3,4,4,4
Tsinghua,1994,2,1,2,6,1.6,42.5,2,2,0,0,2,0,1,2,36.3,36.4,36.35,30.58009338,114.273407,66,13,10:54:21,7,3,2,1,0,4,4,5,0,6,3,4,2,1,1,2,8,3,8,3,1,2,4,2,NA,NA,NA,NA,NA,NA,NA,NA,NA,NA,3,3,3,2,4,4,2,4,2,3,3,2,2,3,4,4,2,2,2,3,3,2,3,3,4,3,3,3,4,2,4,4,3,2,4,4,4,4,4,4,3,2,2,3,2,2,4,5,4,4,4,3,5,5,5,2,4,3,4,5,4,3,5,3,3,4,3,4,3,4,5,4,2,4,3,3,4,3,5,3,4,5,2,4,4,4,4,4,4,4,4,4,5,2,2,5,5,5,5,4,4,2,2,3,4,4,4,4,2,4,2,4,2,3,2,3,4,4,3,2,2,3,2,2,4,4,4,4,2,3,4,2,2,2,1,2,3,2,4,4,3,2,4,4,4,3,3,4,3,4,4,4,2,2,2,4,4,3,4,4,2,4,2,4,4,3,2,4,4,3,3,4,4,3,4,4,4,2,4
Tsinghua,1994,1,1,1,4,1.72,65,2,2,1,0,2,0,1,2,36,36.7,36.35,39.92889404,116.3883057,21,11,09:58:19,7,3,2,1,0,4,2,5,0,8,1,5,5,1,1,2,6,1,1,7,4,2,1,1,¹­¼ýÐ­»á,NA,NA,NA,NA,9,NA,NA,NA,NA,3,3,2,3,2,4,2,4,2,2,4,3,2,4,5,4,4,3,2,4,3,4,4,4,4,2,2,4,4,2,4,4,4,4,4,4,4,4,4,4,4,4,2,2,2,4,4,6,5,6,6,7,4,5,6,5,5,3,6,5,7,5,6,5,5,3,2,3,2,2,4,5,2,2,3,3,3,2,5,2,2,2,4,4,4,4,4,4,4,4,2,4,4,3,3,3,4,5,4,3,4,4,3,3,3,2,2,3,2,2,2,4,2,4,3,5,3,4,2,2,2,2,3,3,3,3,3,3,5,3,3,3,3,3,3,4,4,3,2,2,1,2,4,4,4,3,2,3,4,4,4,4,2,2,3,3,2,4,4,4,2,3,2,4,4,3,2,4,3,2,2,3,2,2,4,4,3,2,2
SMU,1994,1,1,1,4,1.65,58,3,2,0,0,2,NA,1,2,36.1,36.6,36.35,1.293106079,103.8558044,70,26,10:23:41,5,1,2,1,NA,4,4,5,NA,3,1,8,8,2,8,2,8,1,NA,NA,1,1,NA,1,NA,NA,NA,NA,NA,NA,NA,NA,NA,NA,2,1,4,3,3,4,2,4,2,2,4,2,2,4,3,2,3,3,3,3,2,3,3,3,5,1,2,4,4,4,4,4,4,4,4,4,4,4,4,4,3,2,2,3,3,2,4,5,5,5,5,6,3,3,5,3,2,2,5,3,5,5,5,6,3,5,3,3,3,2,2,2,3,3,3,2,3,3,2,2,3,2,3,5,5,5,5,5,5,5,5,5,4,5,5,5,5,4,4,3,4,3,2,4,4,4,2,2,4,2,2,4,1,3,1,3,3,5,3,2,2,3,4,4,5,1,1,2,3,3,3,4,4,2,4,5,3,5,3,1,3,4,2,3,4,5,4,3,4,5,4,4,2,2,3,3,3,4,4,3,2,3,4,3,4,4,3,3,4,4,4,2,2,4,3,3,3,3,2
VCU,1994,2,1,1,7,1.7272,65.90909091,5,2,0,0,2,NA,1,2,36.27777778,36.44444444,36.36111111,37.55220032,-77.45819855,81,14.44444444,10:55:11,5,1,2,1,NA,4,2,4,1,4,2,6,6,2,2,2,7,1,NA,NA,1,2,3,2,sorority,NA,NA,NA,NA,12,NA,NA,NA,NA,4,3,4,5,3,4,2,3,2,3,3,5,4,2,3,2,2,2,2,3,2,2,2,2,4,2,3,3,3,3,4,4,3,4,3,4,3,3,2,2,3,2,2,3,2,2,3,1,2,2,1,2,2,1,1,1,1,3,2,1,2,1,5,2,2,2,3,2,2,2,2,3,2,2,2,3,2,2,2,2,3,3,2,4,5,5,5,5,4,3,4,3,4,2,2,3,3,4,3,2,2,1,2,3,2,3,2,2,2,1,2,4,2,3,3,5,6,5,2,3,2,2,1,1,1,5,4,4,3,4,5,2,2,1,1,3,4,1,4,3,3,2,4,3,4,3,3,4,4,5,4,4,2,2,3,2,5,5,3,4,2,2,2,2,3,3,2,2,3,4,3,3,3,4,3,4,3,2,2
Oslo,1994,1,1,1,7,1.65,58,4,1,0,0,2,NA,1,2,36.37,36.37,36.37,59.74389648,10.20449829,48,-4,15:29:57,4,1,1,1,NA,4,2,4,1,2,1,3,3,1,NA,2,8,3,1,8,1,1,NA,1,NA,NA,NA,NA,NA,NA,NA,NA,NA,NA,3,4,3,3,4,3,2,2,3,2,2,2,5,2,1,2,1,1,1,1,1,1,2,1,4,2,1,3,2,1,3,1,1,4,2,5,1,1,2,1,2,1,4,4,1,4,1,2,1,1,2,7,2,1,2,2,1,5,1,1,2,6,6,6,1,5,1,6,1,3,1,3,3,1,3,5,1,1,2,2,1,1,1,4,4,4,5,5,4,2,2,2,1,2,2,2,2,2,2,1,2,1,2,1,1,2,2,4,1,1,1,1,1,2,1,3,3,3,1,1,2,1,2,5,4,2,1,1,4,2,2,5,5,1,4,5,3,3,3,2,1,1,2,2,3,5,2,5,3,4,3,3,1,1,1,2,2,5,4,4,5,3,2,4,5,2,4,3,5,4,5,4,5,2,2,3,2,2,2
VCU,1994,2,2,1,7,1.6256,54.54545455,4,2,2,0,2,NA,1,2,36.44444444,36.33333333,36.38888889,37.51600647,-77.50050354,87,13.33333333,10:09:42,5,1,2,1,NA,4,4,5,NA,8,1,5,5,1,NA,2,4,1,NA,NA,1,1,NA,1,NA,NA,NA,NA,NA,NA,NA,NA,NA,NA,4,4,4,3,4,4,3,3,3,3,4,4,4,4,3,3,2,2,2,2,2,2,2,2,4,2,2,4,4,4,4,3,4,4,4,4,4,4,4,4,4,3,4,4,4,3,4,3,2,2,5,4,3,4,2,2,2,5,2,2,2,1,2,5,1,2,1,3,1,1,1,2,2,2,2,2,1,1,2,2,3,1,2,5,4,4,4,4,3,3,4,4,5,6,6,6,5,5,6,2,4,2,2,2,3,3,2,2,2,2,2,2,1,2,1,5,4,2,2,2,2,3,4,4,5,4,2,2,2,2,2,5,3,4,5,3,2,4,3,4,2,4,5,4,4,5,5,5,3,3,5,4,1,2,3,3,5,5,3,3,2,4,4,4,4,5,2,4,4,5,5,5,2,4,5,4,2,1,2
METU,1994,2,1,2,7,1.57,54,4,2,6,4,1,4,1,2,36.2,36.6,36.4,39.91169739,32.84030151,74,12,10:32:48,3,2,2,1,NA,4,4,5,NA,4,4,6,6,1,NA,2,4,1,NA,NA,1,2,8,2,Thbt,NA,NA,NA,NA,20,NA,NA,NA,NA,3,4,3,4,2,3,2,1,4,2,3,2,3,3,4,3,3,3,2,3,3,3,3,3,4,4,3,2,3,1,3,4,3,3,2,4,1,3,3,3,3,1,3,2,2,4,1,5,4,4,5,4,5,4,5,6,4,7,3,4,1,4,7,2,2,2,3,4,4,4,4,4,4,4,2,3,3,2,4,4,4,2,3,3,4,4,3,4,3,3,4,4,7,5,5,6,5,5,5,3,2,1,2,2,1,2,3,1,1,2,1,2,2,3,2,5,8,7,3,7,6,6,3,1,4,4,1,2,4,4,1,5,4,3,4,5,3,4,4,3,3,4,4,4,3,4,4,3,3,4,3,3,3,3,3,2,1,3,3,3,3,3,3,4,3,4,2,3,3,3,4,4,3,3,3,3,3,3,3
Tsinghua,1994,1,1,2,7,1.82,72,2,2,4,0,2,0,1,2,36.5,36.3,36.4,30.58009338,114.273407,74,16,10:46:01,7,3,2,1,0,4,2,5,0,8,1,6,3,1,1,2,8,1,1,1,1,1,3,2,NA,NA,NA,NA,NA,NA,NA,NA,NA,NA,5,4,4,2,3,3,3,3,2,3,4,3,3,5,4,5,2,3,3,4,5,4,5,3,2,4,5,3,3,4,3,2,4,2,4,4,3,3,5,5,3,4,5,3,2,2,4,5,5,4,4,3,5,3,4,3,2,3,5,3,3,4,6,3,5,6,2,6,4,5,7,5,2,5,3,4,3,2,5,4,5,5,2,4,4,5,4,4,3,3,3,5,5,5,3,7,5,5,5,4,4,2,3,2,3,3,3,4,3,5,4,3,4,3,3,2,2,4,3,6,4,6,5,3,4,4,2,3,4,5,1,3,2,2,3,4,2,3,2,4,2,2,4,4,4,2,2,4,2,2,2,3,3,4,2,4,3,4,3,4,4,3,2,4,2,3,4,4,3,3,2,4,3,3,2,4,2,3,4
Oxford,1994,2,1,2,7,1.7018,60.90909091,4,2,3,1,2,NA,1,2,36.3,36.5,36.4,51.75,-1.25,74,2.777777778,07:49:29,5,1,2,1,NA,4,4,5,NA,2,1,8,8,1,NA,1,NA,1,NA,NA,1,1,NA,2,Sports club,NA,NA,NA,NA,5,NA,NA,NA,NA,1,2,5,4,2,2,3,3,2,4,4,3,4,5,4,5,2,4,4,5,5,4,4,5,5,3,5,5,5,4,5,4,5,4,5,4,5,5,5,5,5,5,3,4,5,5,5,5,5,4,5,3,7,7,7,6,4,5,1,5,1,6,3,6,3,7,6,6,6,6,6,6,6,5,7,6,6,6,6,6,6,6,6,5,5,5,5,5,5,5,5,5,5,6,4,3,5,5,5,4,4,1,3,5,2,3,2,2,4,5,4,4,2,5,4,1,1,1,1,1,1,1,1,4,2,4,1,5,2,4,5,5,4,1,3,5,5,2,5,1,1,1,4,4,4,1,1,1,1,4,1,1,4,4,3,2,5,2,4,1,2,3,4,4,4,1,1,1,4,1,1,5,5,5,2,5,4,4,1
VCU,1994,2,1,1,2,1.6764,65.90909091,3,2,8,0,2,NA,1,2,36.27777778,36.61111111,36.44444444,36.93400574,-78.95330048,54,7.222222222,11:08:17,5,1,2,1,NA,4,4,5,NA,3,3,4,4,1,NA,2,3,3,1,4,1,1,NA,1,NA,NA,NA,NA,NA,NA,NA,NA,NA,NA,4,4,4,4,3,4,3,3,4,4,4,4,4,3,3,4,3,3,3,3,3,3,3,4,4,3,3,2,3,2,3,2,2,4,2,4,4,4,4,4,4,2,2,3,3,3,3,2,3,2,3,3,4,4,3,4,2,2,2,2,2,2,3,2,3,5,3,5,4,5,4,3,4,4,2,2,2,2,5,3,3,3,2,5,5,4,5,5,5,4,5,5,3,5,5,5,5,6,6,3,2,2,3,3,2,4,3,2,4,4,4,2,3,4,2,4,6,5,5,5,5,4,4,4,2,5,4,5,4,3,5,2,2,2,2,2,4,3,4,3,2,2,4,4,4,3,2,4,4,3,4,4,2,2,3,4,4,4,4,2,2,4,4,2,4,2,2,4,4,2,2,2,4,4,4,3,4,2,4
VCU,1994,2,1,2,1,1.6256,52.27272727,3,2,4,2,2,NA,1,2,36.16666667,36.72222222,36.44444444,37.5809021,-77.41529846,81,14.44444444,10:59:16,5,1,2,1,NA,4,4,5,NA,3,3,2,2,2,3,2,3,3,1,1,2,1,NA,2,church,group chat,cousins,NA,NA,2,5,3,NA,NA,3,3,3,3,4,3,2,3,3,4,3,3,3,4,4,4,3,2,3,3,4,3,3,4,4,2,4,3,2,2,3,4,3,3,3,4,4,4,4,4,3,2,3,3,2,2,4,3,2,2,2,4,2,2,3,3,5,5,2,2,2,2,2,2,3,3,2,2,4,3,4,2,4,6,3,3,4,4,5,5,5,5,4,2,4,4,3,4,4,3,4,4,4,4,4,4,4,4,4,2,2,2,4,3,3,3,2,3,3,3,2,2,3,3,3,4,5,4,3,5,2,2,4,4,3,4,4,3,2,4,4,4,4,3,2,4,4,3,4,2,3,4,4,3,4,3,3,4,4,4,3,4,3,3,3,4,4,3,3,2,2,4,4,4,3,3,3,4,4,4,3,4,3,4,4,4,4,4,3
Oxford,1994,2,1,2,3,1.64,50,3,2,0,0,2,NA,1,2,36.2,36.7,36.45,51.75,-1.25,74,2.777777778,08:59:43,5,1,2,1,NA,4,4,5,NA,7,4,7,7,2,3,2,7,1,NA,NA,4,1,NA,1,NA,NA,NA,NA,NA,NA,NA,NA,NA,NA,4,4,4,5,5,3,4,3,3,4,3,4,5,2,2,3,3,2,2,2,3,3,3,2,3,4,2,2,3,2,3,2,2,3,2,3,3,3,3,2,3,2,3,2,3,2,3,2,2,2,2,2,4,2,2,4,2,4,2,2,2,2,2,4,2,2,4,2,4,2,2,2,4,4,4,4,4,4,2,4,4,4,4,4,5,5,5,5,5,5,3,3,3,5,4,4,4,4,4,2,2,1,2,2,2,2,2,2,2,2,3,2,2,3,2,5,5,4,4,4,2,3,2,2,3,4,3,5,3,3,4,4,2,2,2,2,4,2,4,2,1,4,3,3,3,2,3,3,3,2,3,4,2,2,2,2,3,3,3,2,2,2,4,2,4,1,2,3,4,2,2,3,3,3,2,3,3,3,3
Oxford,1994,1,2,2,6,1.8288,65,3,2,6,8,2,NA,1,2,36.6,36.3,36.45,51.75,-1.25,89,-1.666666667,08:10:41,5,1,2,1,NA,4,4,5,NA,8,1,8,8,1,NA,2,8,1,NA,NA,1,1,NA,2,acting group,ball committee,NA,NA,NA,7,7,NA,NA,NA,2,1,3,2,1,3,2,1,1,2,3,3,3,3,4,5,2,2,2,2,3,2,3,4,5,2,3,2,3,2,3,3,2,2,2,4,3,3,3,4,2,1,2,2,3,2,4,4,4,4,3,7,6,4,6,3,5,3,5,3,4,5,4,3,3,4,3,5,3,3,2,3,4,1,2,3,3,3,5,3,2,3,4,4,4,4,3,3,2,1,4,3,6,7,5,5,6,5,5,4,3,3,2,2,4,4,2,2,5,2,2,2,2,2,1,4,3,4,2,2,2,2,2,4,3,5,5,2,2,5,2,1,3,2,2,2,4,2,4,2,3,2,4,3,4,3,3,3,1,4,3,3,2,2,2,2,2,4,2,2,2,2,2,3,4,2,3,4,3,2,2,4,3,4,3,3,3,2,4
Tsinghua,1994,2,1,2,7,1.56,47,2,1,0,0,2,0,1,2,36.2,36.7,36.45,30.58009338,114.273407,71,16,10:21:37,7,3,2,1,0,4,2,5,0,6,3,6,2,1,1,1,3,2,1,5,1,2,1,2,°àÎ¯,NA,NA,NA,NA,5,NA,NA,NA,NA,2,3,3,3,3,2,2,3,3,1,2,3,2,4,4,4,4,3,4,3,4,3,4,2,4,3,4,2,4,3,4,4,3,4,4,4,4,3,4,3,2,2,2,2,2,2,3,6,5,5,4,5,5,4,4,5,5,5,5,4,4,6,5,5,4,5,3,3,4,4,4,3,3,3,5,2,5,5,5,5,3,3,4,4,4,3,2,4,5,4,3,4,5,1,3,2,4,4,4,4,4,2,2,3,3,4,4,4,4,2,2,3,2,3,2,3,3,4,2,2,2,3,1,3,4,4,1,3,2,2,2,4,2,1,1,4,4,2,4,3,3,3,3,4,3,4,4,3,3,3,3,3,3,3,3,2,4,4,4,3,2,4,4,3,3,2,2,4,4,3,3,3,3,4,4,3,4,4,3
METU,1994,2,2,2,6,1.56,48,3,2,5,0,1,5,1,2,36.4,36.5,36.45,39.91169739,32.84030151,64,6,11:20:39,3,2,3,1,NA,4,4,5,NA,2,1,8,6,1,NA,2,8,3,1,8,1,2,8,2,TED burslu ??rencileri,NA,NA,NA,NA,7,NA,NA,NA,NA,3,4,4,3,2,2,4,4,2,3,4,2,3,3,3,3,2,2,2,2,2,2,2,3,3,3,3,4,4,4,4,4,2,4,3,4,2,4,3,2,2,3,4,4,4,2,2,4,2,2,5,6,2,5,2,2,2,3,2,2,3,2,6,2,3,4,3,2,2,3,2,2,2,2,3,2,3,3,2,3,4,4,4,3,3,3,2,2,2,2,1,2,3,3,3,3,2,2,2,3,3,1,4,3,4,4,3,3,4,2,3,5,4,3,2,5,6,3,1,3,3,3,1,4,1,3,5,4,4,4,4,1,2,1,1,2,5,1,5,4,3,4,3,2,4,3,3,3,2,3,3,2,3,4,3,4,5,5,3,4,3,4,3,4,4,4,1,2,2,4,2,4,2,4,4,3,3,3,4
Tsinghua,1994,2,1,2,7,1.68,50,4,2,NA,0,2,0,1,2,36.3,36.6,36.45,30.66670227,104.0667114,70,14,12:08:44,7,3,2,1,0,4,4,5,0,8,4,8,5,1,1,2,8,1,1,8,6,1,4,1,ÅÅÇòÐ­»á,ÎäÊõÐ­»á,ÓïÑÔ°®ºÃÕßÐ­»á,NA,NA,3,NA,NA,NA,NA,5,2,1,3,5,2,5,1,3,2,5,3,3,2,2,4,2,2,2,2,1,3,3,4,3,2,4,4,4,4,4,4,3,4,4,3,4,4,3,4,4,5,4,4,3,5,5,4,5,4,5,3,4,4,4,5,3,3,4,4,3,5,5,4,5,5,4,4,5,5,3,4,3,3,4,3,4,4,5,3,3,5,5,3,4,4,5,5,3,3,3,3,3,4,4,7,7,6,6,3,3,3,2,2,3,2,3,3,3,3,4,2,2,3,4,2,2,4,2,2,3,2,4,4,3,4,4,4,4,4,4,2,2,3,2,3,3,3,3,4,4,2,4,4,2,4,4,3,4,4,4,4,2,3,2,2,3,3,3,3,3,2,4,3,4,3,3,2,5,3,4,3,3,5,3,3,4,2,3
SMU,1994,2,1,1,7,1.57,51.6,4,2,0,0,2,NA,1,2,36.6,36.3,36.45,1.293106079,103.8558044,70,26,10:47:05,5,1,2,1,NA,4,4,5,NA,5,2,2,8,2,5,2,8,1,NA,NA,3,1,NA,2,Women Soccer Club,NA,NA,NA,NA,7,NA,NA,NA,NA,2,2,2,4,4,3,1,3,2,2,3,2,3,5,4,5,2,2,2,2,3,2,3,4,4,3,5,4,4,3,4,4,3,4,4,4,4,4,3,4,4,1,3,4,2,4,4,2,1,1,1,1,2,2,2,1,5,1,1,1,2,2,1,1,4,1,1,7,2,1,1,2,2,2,1,1,1,1,2,1,2,2,1,4,5,5,5,5,5,5,5,5,4,7,6,6,5,6,5,3,3,2,2,2,3,3,2,2,2,2,2,4,2,3,2,4,6,5,6,5,6,5,2,4,4,2,2,2,4,4,2,4,3,2,4,4,3,4,3,2,2,2,4,5,2,4,1,4,4,1,4,4,1,1,2,2,2,3,4,2,2,4,3,2,4,3,4,4,4,4,3,2,2,3,2,2,3,1,4
Kassel,1994,2,1,2,7,1.61,54,4,2,1,0,2,NA,1,2,36.5,36.4,36.45,50.72129822,10.44580078,58,0,10:56:35,1,1,2,1,NA,4,2,5,NA,8,4,2,1,1,NA,2,5,1,NA,NA,1,1,NA,1,NA,NA,NA,NA,NA,NA,NA,NA,NA,NA,4,3,2,4,4,4,2,4,2,2,3,4,3,4,4,4,3,3,4,3,4,3,3,4,4,3,3,4,5,3,4,4,3,4,4,4,4,3,4,4,5,2,4,3,3,3,4,5,5,4,4,4,5,4,4,5,4,4,4,4,4,4,5,4,4,4,4,4,4,4,4,4,4,4,4,4,4,4,4,5,4,4,4,5,5,4,5,5,5,5,5,5,4,5,5,5,4,4,4,3,4,1,3,2,3,3,4,2,4,3,2,3,3,4,2,4,2,2,1,2,2,1,3,4,2,5,2,4,3,3,3,5,4,2,1,4,3,1,4,4,3,5,3,4,3,3,4,3,3,3,3,3,2,2,2,2,3,3,4,1,2,4,4,2,5,2,1,4,3,2,2,2,1,3,4,2,2,2,2
VCU,1994,2,1,1,7,1.9304,93.18181818,4,2,0,0,2,NA,1,2,36.61111111,36.33333333,36.47222222,37.55380249,-77.46029663,64,10.55555556,10:32:20,5,1,1,1,NA,4,2,4,2,2,2,6,6,2,3,2,6,3,1,8,2,1,NA,1,NA,NA,NA,NA,NA,NA,NA,NA,NA,NA,4,5,5,2,5,4,5,3,5,3,5,5,5,3,4,5,2,2,2,4,3,2,2,3,5,2,2,1,1,1,1,1,1,1,1,1,4,1,4,3,2,1,1,1,1,1,1,4,4,4,4,4,4,4,4,2,4,4,6,4,4,4,4,4,4,4,2,4,4,4,4,4,4,4,4,4,4,4,4,4,4,4,4,5,5,5,5,5,5,5,5,5,3,4,3,6,2,2,2,2,3,1,3,3,3,3,3,3,2,3,2,3,1,3,4,5,3,4,5,5,5,1,3,3,3,3,3,3,3,3,3,4,4,2,4,5,5,4,1,2,3,3,3,3,3,3,3,3,3,3,3,3,3,3,3,3,3,3,2,2,2,4,4,3,3,3,2,4,4,3,3,3,3,3,3,3,3,3,3
VCU,1994,2,1,1,7,1.778,69.54545455,4,1,10,0,2,NA,1,2,36.33333333,36.61111111,36.47222222,37.61920166,-77.4960022,88,10,10:42:23,5,1,2,1,NA,4,4,5,NA,6,4,8,6,1,NA,2,8,3,1,8,5,1,NA,1,NA,NA,NA,NA,NA,NA,NA,NA,NA,NA,3,4,4,2,4,4,4,4,4,2,5,4,4,2,3,3,2,2,2,2,2,2,2,2,4,2,2,2,2,2,2,2,2,2,2,2,2,2,2,2,2,2,2,2,2,2,2,2,2,2,2,2,2,2,2,2,2,2,2,2,2,2,2,2,2,2,2,6,2,2,2,2,2,2,6,2,2,2,2,2,4,2,3,5,5,5,5,5,5,5,5,5,5,5,5,5,5,5,5,2,3,2,3,2,2,2,4,2,2,2,4,2,2,2,2,4,6,6,6,6,6,6,2,4,4,4,1,4,2,4,4,5,4,2,3,4,4,2,4,3,4,4,4,3,3,3,4,4,4,4,4,4,2,2,2,2,4,4,4,3,3,4,3,3,3,2,2,3,4,3,2,2,2,4,3,3,4,2,3
Serbia,1994,1,1,2,6,1.97,110,5,2,2,0,2,NA,1,2,36.5,36.5,36.5,44.77920532,20.4539032,95,11,09:03:32,6,1,2,1,NA,4,4,5,NA,8,4,8,8,1,NA,2,8,1,NA,NA,3,2,3,2,SF Gugi,NA,NA,NA,NA,5,NA,NA,NA,NA,3,5,5,5,5,5,5,3,5,4,5,5,5,2,1,1,1,2,1,3,2,1,2,1,3,2,1,1,2,1,1,2,2,2,2,2,4,3,2,2,1,2,2,2,1,2,2,2,1,1,1,5,2,1,3,NA,1,1,2,1,1,1,2,1,1,5,NA,4,NA,1,1,1,NA,NA,NA,NA,NA,NA,1,7,6,1,NA,5,4,4,5,5,4,2,4,4,2,2,3,1,2,2,2,2,2,2,2,2,2,2,2,2,2,1,4,2,2,2,3,4,4,4,1,2,2,4,4,2,2,4,2,2,2,4,2,4,1,1,2,2,2,4,4,2,4,4,4,4,4,2,2,2,4,3,1,1,1,3,2,2,2,3,2,2,2,2,3,4,3,2,4,4,2,4,4,4,3,2,2,2,2,4,2
UCSB,1994,2,1,2,7,1.6256,56.81818182,4,1,0,0,2,NA,1,2,37,36,36.5,34.4329071,-119.8370972,54,6.666666667,NA,5,1,2,1,NA,4,4,5,NA,1,NA,5,2,2,1,2,3,1,NA,NA,1,1,NA,2,NHCC,0,0,0,0,6,0,0,0,0,4,4,4,2,4,5,2,3,2,2,4,4,5,2,2,3,2,3,2,3,3,1,3,2,3,3,3,1,4,1,4,2,2,2,2,1,4,2,1,1,1,1,1,2,1,1,2,1,1,1,1,1,1,1,1,7,1,7,1,1,1,1,1,1,1,1,7,1,7,1,1,1,7,7,7,7,7,7,1,7,7,7,7,5,5,5,5,5,5,3,4,3,3,5,4,4,4,4,3,2,3,1,3,1,2,2,1,4,2,1,1,1,2,4,2,1,2,5,2,2,2,1,3,3,4,4,1,2,2,5,3,5,2,1,4,5,4,3,2,2,2,3,4,4,3,4,4,3,3,4,3,1,3,2,3,2,4,5,4,4,1,3,4,4,2,2,2,4,4,3,2,2,4,2,2,2,2,4,2
Kassel,1994,2,1,1,5,1.69,71,2,2,3,0,2,NA,1,2,36.5,36.5,36.5,53.55000305,10,88,0,10:29:45,1,1,2,1,NA,4,4,4,1,7,2,7,5,2,1,2,8,1,NA,NA,1,2,1,1,NA,NA,NA,NA,NA,NA,NA,NA,NA,NA,3,3,3,4,2,3,2,3,3,4,2,3,4,4,4,4,3,2,3,2,4,3,3,4,4,3,4,2,4,2,4,2,1,1,2,3,4,4,4,3,3,1,2,2,1,1,2,5,4,5,6,6,5,2,6,4,2,3,3,6,3,5,6,2,3,3,2,4,2,3,2,2,3,5,4,4,4,4,2,4,4,1,4,5,5,5,5,5,4,3,4,4,6,6,6,6,6,5,4,2,2,2,1,2,2,3,2,2,2,2,2,2,3,3,2,5,7,6,5,3,4,5,2,2,2,4,4,4,2,2,4,3,2,1,3,3,3,2,3,3,4,5,3,4,3,4,4,4,4,3,4,4,2,2,3,5,5,5,3,3,2,2,3,4,3,3,2,4,4,4,4,4,3,4,5,5,4,2,5
Kassel,1994,2,1,1,7,1.74,64,3,2,8,0,2,NA,1,2,36,37,36.5,50.93260193,11.58680725,61,10,09:54:39,1,1,2,1,NA,4,4,4,1,7,4,7,5,2,3,2,6,3,1,5,2,1,NA,2,Showtanzgruppe,Kirmesgesellschaft,NA,NA,NA,10,5,NA,NA,NA,3,3,4,4,3,3,3,2,3,4,4,2,4,3,3,3,3,2,2,3,3,2,4,4,4,2,2,2,4,2,3,2,1,2,3,3,4,4,3,3,3,2,3,2,1,2,3,4,4,4,5,6,5,3,2,5,2,4,5,2,2,2,4,2,2,2,2,6,2,2,1,1,2,7,2,2,2,3,1,5,3,2,5,5,5,4,5,5,5,3,4,4,4,3,5,4,5,5,5,2,2,1,2,3,2,3,2,2,2,2,2,2,2,2,2,4,6,7,3,4,4,5,2,3,1,5,4,4,3,3,4,4,3,1,1,3,4,1,2,4,3,4,3,3,4,5,5,4,4,4,4,4,2,2,2,2,2,4,3,1,3,3,2,2,4,3,1,4,4,4,5,5,2,4,4,4,4,2,2
VCU,1994,2,1,1,7,1.7018,80.90909091,4,2,NA,0,2,NA,1,2,36.44444444,36.55555556,36.5,37.50230408,-77.56929779,91,14.44444444,10:40:09,5,1,1,1,NA,4,2,5,NA,8,4,5,3,1,NA,2,8,3,1,6,1,1,NA,2,Fraternity,NA,NA,NA,NA,7,NA,NA,NA,NA,2,4,5,2,2,2,4,3,4,2,5,4,5,2,3,3,2,2,2,2,2,2,2,3,4,2,3,2,4,2,2,2,2,2,2,4,4,4,4,4,4,2,2,2,2,2,3,2,3,2,2,2,3,3,2,2,1,3,5,1,2,3,2,1,1,3,5,3,2,2,2,3,3,6,3,3,3,2,2,3,3,2,3,5,4,5,5,5,5,2,5,5,1,1,1,1,1,1,1,2,4,2,2,2,2,2,2,3,2,2,2,2,2,4,2,1,2,1,2,2,3,1,4,4,2,4,2,4,3,2,4,4,2,1,4,4,4,2,4,4,1,2,4,4,4,4,3,4,4,4,2,2,2,2,2,4,4,4,4,2,2,4,2,4,2,2,2,4,4,4,3,3,2,3,4,3,4,4,3
SMU,1994,1,1,2,7,1.68,56,3,2,0,0,2,NA,1,2,36.5,36.5,36.5,1.293106079,103.8558044,79,26,10:56:47,5,1,2,1,NA,4,4,5,NA,2,1,3,1,2,1,2,5,1,NA,NA,1,1,NA,1,NA,NA,NA,NA,NA,NA,NA,NA,NA,NA,3,2,4,2,4,4,2,4,4,5,3,4,5,2,4,2,2,2,1,1,2,2,2,3,5,1,2,2,4,1,5,1,2,2,1,4,1,1,1,5,1,1,3,1,1,1,3,3,4,5,4,4,2,4,4,4,4,2,4,2,4,2,5,3,2,3,3,4,3,4,3,3,3,5,3,3,3,3,3,4,3,3,3,5,5,5,5,5,5,5,5,5,4,5,5,5,4,4,4,1,4,1,5,1,1,1,3,3,3,1,1,2,5,4,2,2,2,1,1,2,2,1,2,4,5,1,1,4,4,3,4,5,5,1,4,5,4,3,3,2,2,4,4,4,4,4,2,4,3,4,4,2,2,2,2,1,1,5,4,2,3,5,5,2,4,3,3,3,4,2,2,2,2,4,2,4,3,4,1
SMU,1994,2,1,2,7,1.6,48,3,2,2,0,2,NA,1,2,36.4,36.6,36.5,1.293106079,103.8558044,71,26,10:48:04,5,1,2,1,NA,4,4,5,NA,7,7,5,4,1,NA,2,4,1,NA,NA,1,1,NA,1,NA,NA,NA,NA,NA,NA,NA,NA,NA,NA,4,4,2,4,3,3,5,3,3,3,4,5,2,2,3,3,2,2,2,3,3,2,3,2,4,2,3,2,4,2,4,1,2,4,2,2,2,2,2,2,2,2,2,2,1,3,2,4,3,2,4,4,2,2,4,2,2,2,4,2,2,2,3,5,2,5,2,3,2,2,3,5,3,6,2,2,2,2,5,2,4,2,3,5,4,5,5,5,4,2,4,3,6,5,5,5,5,5,3,2,3,2,4,2,2,3,2,4,3,2,2,3,3,2,3,1,2,3,1,3,4,1,3,3,4,4,3,4,2,2,2,2,2,1,3,3,3,2,2,2,2,2,4,1,3,2,3,3,3,2,3,3,3,2,2,2,1,4,2,4,4,2,2,2,2,2,2,4,4,3,3,2,3,3,3,2,4,2,3
Serbia,1994,2,3,2,7,1.8,80,5,2,12,0,2,NA,1,2,36.7,36.3,36.5,44.81860352,20.46809387,61,1,23:18:28,6,1,2,1,NA,4,2,5,NA,1,NA,4,4,1,NA,2,8,2,1,2,1,1,NA,1,NA,NA,NA,NA,NA,NA,NA,NA,NA,NA,2,5,1,1,1,4,2,1,3,1,2,4,4,5,3,5,4,5,4,5,4,5,5,5,4,5,1,4,4,2,3,4,2,1,1,5,5,5,5,5,1,1,2,2,1,1,5,4,4,4,4,4,4,4,4,4,4,4,4,4,4,4,4,4,4,4,4,4,4,4,4,4,4,4,4,4,4,4,4,4,4,4,4,1,1,2,1,1,2,1,2,1,6,3,3,3,2,2,4,2,2,1,3,1,3,5,3,5,5,4,1,1,2,2,4,4,5,2,1,1,1,1,4,2,3,3,3,1,2,5,2,3,3,3,1,4,2,5,5,5,5,3,1,4,3,1,3,1,2,2,4,4,3,3,3,2,1,1,1,1,3,1,5,1,2,4,3,2,5,1,4,3,2,1,1,1,1,4,5
Tsinghua,1994,2,1,2,7,1.61,53.5,3,2,0,NA,2,0,1,2,36.4,36.6,36.5,30.66670227,104.0667114,79,14,11:33:00,7,3,2,1,0,4,2,5,0,5,4,5,4,1,1,2,8,1,1,8,4,1,8,1,ÇàÄêÖ¾Ô¸ÕßÐ­»á,ÔË¶¯¾ãÀÖ²¿,Ê«¸èÀÊËÐÐ­»á,NA,NA,NA,NA,NA,NA,NA,4,4,1,4,4,4,3,2,3,4,5,3,4,4,3,4,3,3,2,4,3,3,2,3,4,2,3,3,3,4,4,2,4,2,3,3,4,3,4,3,2,2,3,3,2,2,3,6,5,4,5,7,5,3,4,4,7,5,5,5,4,4,6,7,6,5,3,5,4,6,4,6,5,3,3,4,4,4,6,4,2,3,1,4,5,5,5,5,5,5,5,5,3,2,4,5,4,6,5,4,5,3,3,5,5,4,5,5,5,5,3,3,1,4,2,5,7,7,3,3,3,2,2,4,4,4,2,4,5,4,4,5,3,1,3,3,4,4,4,4,2,1,2,5,3,3,3,5,5,3,4,3,3,2,4,4,3,5,4,3,1,3,3,4,4,4,3,4,4,4,4,2,3,4,4,4,4,2,4
SMU,1994,2,1,1,5,1.64,50,4,2,0,0,2,NA,1,2,36.4,36.6,36.5,1.293106079,103.8558044,71,26,09:06:11,5,1,2,1,NA,4,4,5,NA,4,2,6,6,2,1,2,8,1,NA,NA,2,1,NA,1,NA,NA,NA,NA,NA,NA,NA,NA,NA,NA,3,3,4,4,4,4,3,3,4,4,4,4,4,4,3,3,2,2,2,2,2,3,2,2,4,2,2,4,4,4,4,3,4,4,3,4,4,4,4,3,4,2,2,3,2,4,4,5,1,2,2,5,2,1,2,2,2,3,2,1,3,3,4,3,1,3,3,2,2,2,3,2,2,2,3,3,4,2,1,2,3,2,2,5,5,5,5,5,5,5,5,5,4,5,5,4,4,4,4,2,2,2,2,2,2,2,2,2,2,2,3,2,2,4,2,4,4,5,1,1,1,2,3,3,5,5,2,2,2,2,2,4,2,2,4,4,4,4,2,3,4,4,4,4,4,4,4,4,4,4,4,4,1,1,1,1,1,4,3,3,2,4,2,2,2,2,4,4,4,4,4,4,2,4,4,4,4,3,3
VCU,1994,2,1,2,7,1.524,56.81818182,3,2,3,0,2,NA,1,2,36.61111111,36.38888889,36.5,38.32049561,-77.41130066,91,14.44444444,09:56:47,5,1,2,1,NA,4,2,4,1,8,6,5,5,1,NA,2,5,1,NA,NA,3,2,3,1,NA,NA,NA,NA,NA,NA,NA,NA,NA,NA,4,5,5,5,4,1,5,3,5,3,5,5,5,3,3,5,2,1,2,2,2,4,2,4,5,3,2,5,4,5,3,4,4,1,5,5,5,5,5,5,4,1,2,2,1,3,4,5,5,6,4,4,5,5,5,6,5,7,1,3,1,5,2,4,4,6,2,7,4,5,3,3,3,4,1,4,1,2,3,7,7,5,4,3,5,3,5,4,4,4,5,5,5,7,7,7,5,6,5,4,5,1,4,3,1,5,4,4,3,3,1,1,4,2,1,3,3,2,2,3,2,2,2,1,3,5,4,1,5,1,5,1,1,1,3,5,5,3,3,1,1,1,3,5,4,3,2,4,4,4,3,3,2,2,3,3,5,5,5,1,1,4,5,3,4,1,1,4,5,2,2,4,1,5,3,4,3,4,2
VCU,1994,2,1,1,7,1.6002,61.36363636,3,2,0,0,2,NA,1,2,36.38888889,36.61111111,36.5,37.55220032,-77.45819855,100,12.77777778,10:57:16,5,1,2,1,NA,2,2,5,NA,8,4,5,5,2,2,2,2,3,1,4,1,1,NA,1,NA,NA,NA,NA,NA,NA,NA,NA,NA,NA,3,4,3,4,4,4,2,2,2,2,3,2,4,3,4,3,2,2,4,3,3,2,3,3,5,3,2,4,4,4,4,4,4,4,4,5,4,4,4,4,4,4,4,4,4,4,4,1,1,1,2,1,2,1,2,1,1,5,1,2,1,1,1,4,1,2,6,4,1,3,2,1,1,1,2,6,4,6,1,6,6,1,2,5,5,5,5,5,5,5,5,5,6,7,5,6,2,4,4,3,2,2,4,1,2,2,3,3,2,2,2,3,2,4,3,4,3,5,2,2,3,4,1,4,4,3,2,2,4,2,4,5,3,1,5,4,4,5,3,3,3,3,4,4,4,4,4,4,4,4,4,4,2,2,2,2,3,5,4,3,4,4,4,4,4,4,2,4,4,4,4,4,3,4,3,4,4,3,2
METU,1994,2,1,1,7,1.6,68,4,2,8,0,2,NA,1,2,36,37,36.5,39.91169739,32.84030151,78,8,09:52:18,3,2,2,1,NA,4,4,4,1,7,3,6,3,1,NA,2,8,1,NA,NA,1,1,NA,1,NA,NA,NA,NA,NA,NA,NA,NA,NA,NA,5,3,2,2,2,5,2,4,2,1,5,2,4,4,4,5,3,2,2,2,4,3,3,4,4,3,4,5,5,5,5,5,5,5,5,5,5,5,5,5,5,5,5,5,4,5,5,7,5,5,6,7,6,5,6,6,2,6,7,6,5,5,7,6,2,2,2,5,5,7,5,6,5,6,2,2,2,2,5,6,6,2,2,5,5,5,5,5,5,5,5,5,6,7,6,6,5,5,5,5,4,4,4,2,5,5,4,3,5,5,2,4,2,4,2,4,6,6,6,6,5,7,2,1,2,4,3,4,5,4,4,4,4,2,2,4,4,2,4,4,3,5,4,3,4,2,2,4,5,3,4,4,2,2,2,4,4,4,4,2,2,4,5,3,4,4,2,4,4,2,2,4,2,4,4,4,4,2,4
UCSB,1994,2,1,2,6,1.6764,57.72727273,2,1,2,0,2,NA,1,2,36.61111111,36.44444444,36.52777778,34.44119263,-119.6185989,65,9.444444444,NA,5,1,2,1,NA,4,4,5,NA,5,5,8,8,2,8,2,3,1,NA,NA,1,1,NA,1,NA,NA,NA,NA,NA,NA,NA,NA,NA,NA,3,2,2,4,4,4,1,3,2,2,3,4,3,4,2,5,3,3,3,4,4,2,3,3,5,2,4,2,4,2,4,2,2,4,2,4,4,3,4,2,4,2,4,2,2,2,4,4,3,4,4,4,4,3,4,3,3,3,4,4,4,3,3,4,3,3,2,4,2,3,5,3,3,3,3,3,3,3,5,3,2,3,4,3,4,4,4,4,3,2,4,4,6,3,5,4,4,3,5,4,2,3,3,3,2,4,2,3,4,2,2,4,1,2,1,4,4,5,4,4,4,4,2,4,4,4,4,3,3,3,3,4,4,2,3,4,4,2,2,2,3,3,4,4,4,4,4,4,4,2,4,3,2,2,2,3,2,3,2,4,3,3,3,4,2,3,2,3,4,3,4,3,4,3,4,3,4,2,4
VCU,1994,2,1,2,2,1.6764,61.36363636,3,1,1,1,2,NA,1,2,36.22222222,36.83333333,36.52777778,37.55380249,-77.46029663,91,14.44444444,10:53:00,5,1,2,1,NA,4,4,5,NA,4,1,4,4,1,NA,2,3,3,1,5,1,1,NA,1,NA,NA,NA,NA,NA,NA,NA,NA,NA,NA,3,3,3,4,3,3,2,2,2,3,3,4,3,3,4,4,3,3,3,3,3,2,3,3,4,2,4,4,4,2,4,3,3,4,4,4,4,4,4,4,4,4,4,4,4,3,4,2,2,3,3,4,2,2,3,2,2,1,2,6,4,2,4,2,4,3,2,2,2,2,2,4,2,2,2,2,2,2,2,2,2,1,2,4,4,4,4,4,3,3,4,4,5,6,6,6,5,5,5,4,4,4,2,3,4,4,3,2,4,4,2,3,1,2,2,4,5,4,4,4,2,2,2,4,4,4,1,4,4,4,4,4,3,2,4,5,5,3,4,4,4,4,4,4,4,5,4,4,3,3,4,4,2,2,2,2,4,4,3,4,3,4,4,4,4,4,2,4,4,4,4,4,2,5,4,4,4,2,4
METU,1994,1,1,1,6,1.8,72,4,2,12,0,1,20,1,2,36.4,36.7,36.55,39.91169739,32.84030151,49,6,10:30:41,3,2,1,1,NA,4,4,4,1,8,6,4,4,1,NA,2,8,1,NA,NA,5,2,8,2,MetuBiz,NA,NA,NA,NA,7,NA,NA,NA,NA,1,2,4,2,1,3,4,1,2,4,4,2,1,2,1,3,2,2,2,2,2,4,2,2,4,3,1,2,1,1,2,2,2,1,2,2,2,2,2,4,2,2,2,2,2,2,1,2,2,2,2,6,2,2,2,2,2,2,2,2,2,2,2,2,1,2,2,6,1,2,1,2,2,1,2,2,2,2,2,2,2,2,2,5,5,5,5,5,5,5,5,5,5,4,5,4,5,4,4,2,2,2,2,2,2,1,2,4,2,1,1,2,4,2,2,4,4,6,1,1,1,2,2,2,2,5,3,4,4,2,2,5,5,1,4,4,4,3,2,2,4,4,2,1,5,4,4,4,5,4,4,5,1,1,5,1,1,4,1,5,4,2,3,5,3,4,1,4,2,4,4,4,2,4,4,4,4,5,2
Serbia,1994,2,1,2,6,1.69,71,2,1,18,0,2,NA,1,2,36.6,36.5,36.55,44.81860352,20.46809387,56,6,22:16:28,6,1,2,1,NA,4,2,5,NA,3,2,7,7,1,NA,2,8,1,NA,NA,2,1,NA,1,NA,NA,NA,NA,NA,NA,NA,NA,NA,NA,3,2,2,1,1,2,1,1,1,1,1,1,2,3,3,3,2,2,2,4,4,3,2,4,4,3,3,3,3,1,2,2,2,3,1,3,4,4,4,4,4,1,3,2,4,1,4,7,8,2,8,7,7,2,8,6,4,6,1,5,1,5,4,3,1,7,3,8,3,5,4,5,5,3,3,3,7,6,5,7,7,NA,3,4,3,4,4,3,3,1,4,5,7,7,7,7,7,7,7,5,5,4,5,4,4,5,5,2,4,4,2,2,2,2,2,3,2,4,1,4,4,4,2,4,4,4,2,4,4,1,4,5,4,4,2,3,5,4,4,5,2,4,3,4,3,3,3,4,1,3,5,4,4,4,4,3,1,4,3,4,4,2,2,4,3,2,1,3,4,3,2,4,3,4,4,4,2,2,4
Kassel,1994,2,1,1,4,1.69,70,3,2,3,0,1,3,1,2,36.4,36.7,36.55,51,9,53,12,09:39:53,1,1,4,1,NA,4,4,4,1,5,3,7,4,2,1,2,8,1,NA,NA,1,2,2,1,NA,NA,NA,NA,NA,NA,NA,NA,NA,NA,3,4,3,4,2,3,3,1,2,3,3,3,3,4,4,3,3,3,4,3,4,3,4,4,3,4,4,2,4,1,4,1,2,1,3,4,5,4,3,2,4,1,3,3,2,1,4,5,4,5,5,5,4,5,4,4,5,6,5,3,4,3,4,2,4,2,3,4,3,3,2,2,2,2,4,3,3,4,2,4,3,2,3,4,4,4,4,5,3,2,3,4,6,5,6,5,6,6,6,2,2,2,2,3,2,3,2,2,2,2,2,2,2,2,2,5,7,6,6,5,5,5,3,2,2,4,4,3,3,3,3,2,2,1,2,2,2,2,4,4,4,4,3,4,4,4,4,4,4,3,3,4,2,2,3,4,4,4,4,3,4,2,3,4,2,3,2,5,5,3,3,4,3,5,3,5,3,1,5
Tsinghua,1994,1,1,1,7,1.78,61,4,2,16,0,2,0,1,2,36.4,36.7,36.55,30.58009338,114.273407,87,17,11:23:34,7,3,2,1,0,4,2,4,1,5,2,4,4,1,1,2,1,1,1,1,1,2,1,1,ÉÌÑ§Ôºµ³Ö§²¿,NA,NA,NA,NA,0,NA,NA,NA,NA,3,4,3,2,2,2,1,2,2,3,5,2,2,3,2,3,2,3,2,2,4,2,3,2,4,2,1,1,4,2,4,1,2,1,4,4,4,4,4,4,2,3,2,2,1,1,2,6,1,6,7,6,1,1,6,2,1,1,6,1,1,1,1,3,1,1,7,2,2,1,1,6,1,2,1,2,1,2,1,2,2,1,2,5,5,4,2,4,5,4,4,4,3,4,4,4,5,3,4,2,4,1,3,3,1,2,2,4,2,1,2,2,2,1,3,2,2,1,2,2,2,5,4,4,4,4,1,1,1,2,2,4,2,4,2,4,1,2,4,4,3,2,3,4,4,2,1,5,4,1,4,4,1,1,1,1,4,4,4,4,2,4,5,5,4,1,2,2,2,2,4,1,2,1,4,1,2,2,2
METU,1994,2,1,1,7,1.68,52,4,1,1,2,1,7,1,2,36.4,36.7,36.55,39.91169739,32.84030151,69,6,11:08:15,3,2,2,1,NA,4,2,4,1,4,3,3,2,1,NA,2,8,1,NA,NA,1,2,2,1,NA,NA,NA,NA,NA,NA,NA,NA,NA,NA,3,2,4,4,4,4,1,2,3,2,4,3,4,3,3,4,3,3,2,3,3,3,4,2,4,3,3,4,4,3,4,3,1,3,1,2,2,4,3,1,3,1,1,1,4,1,3,7,5,4,6,1,7,4,5,2,2,6,5,2,5,2,6,4,1,2,2,2,1,2,2,2,2,2,1,1,3,2,2,2,4,1,3,5,5,5,5,5,5,5,5,5,5,7,7,7,7,6,6,4,2,5,2,5,4,4,2,2,3,4,2,4,3,1,1,4,4,6,3,4,1,5,2,3,2,4,3,4,2,3,5,5,4,1,1,5,5,3,5,4,4,5,2,2,4,5,5,5,5,5,5,5,1,2,1,3,3,1,5,1,1,4,3,4,3,5,2,5,1,5,5,5,1,5,5,4,3,2,5
Tsinghua,1994,2,1,2,7,1.6,56,4,2,4,0,2,0,1,2,36.7,36.4,36.55,39.14219666,117.1766968,53,5,11:15:57,7,3,2,1,0,4,4,5,0,8,2,6,3,1,3,2,6,1,1,3,5,2,1,2,Ë«Ñ§Î»¿Î³Ì,¼ªËû½ÌÑ§,¹«Ë¾×éÖ¯,NA,NA,3,2,2,NA,NA,3,3,4,4,5,4,1,5,2,3,4,4,3,2,3,2,2,2,2,3,1,3,2,3,4,2,2,2,3,2,4,4,4,2,4,2,4,3,2,4,2,2,2,2,3,2,2,6,3,2,5,6,3,4,5,3,2,3,2,4,2,4,3,3,4,6,3,4,2,2,3,4,5,3,3,2,6,2,5,3,2,2,2,3,2,2,3,4,5,4,3,4,3,2,4,6,5,3,4,3,3,3,3,4,4,3,4,3,2,3,2,2,1,4,1,3,3,4,3,2,5,3,2,4,5,4,1,2,3,2,4,4,2,1,2,4,4,1,4,4,2,2,4,4,4,3,4,5,3,3,4,2,3,4,1,5,5,4,2,3,2,4,2,4,4,4,2,4,4,3,2,4,4,5,5,5,4,3,4
METU,1994,2,1,1,3,1.66,55,4,1,4,0,2,NA,1,2,36.6,36.5,36.55,39.91169739,32.84030151,71,7,11:05:02,3,2,2,1,NA,4,4,4,1,4,3,5,5,1,NA,2,7,1,NA,NA,1,1,NA,1,NA,NA,NA,NA,NA,NA,NA,NA,NA,NA,2,5,1,4,2,1,3,1,1,2,2,2,2,2,3,2,2,2,2,2,3,2,3,2,3,4,2,4,4,4,4,5,2,4,3,5,5,4,5,4,4,2,2,4,2,2,5,6,3,6,6,7,5,6,5,5,2,5,3,2,5,2,7,3,2,1,1,3,2,4,2,2,2,2,1,5,2,6,2,3,4,2,2,4,4,4,4,4,4,2,4,4,3,3,3,5,3,3,2,2,2,2,2,2,2,2,2,2,2,3,2,2,1,3,2,5,6,2,1,5,4,2,5,1,5,5,1,1,5,5,1,5,5,5,5,5,2,4,5,5,2,5,5,4,2,3,3,5,4,2,4,4,2,2,2,2,2,3,2,4,2,2,2,4,3,2,2,4,4,2,1,4,4,2,1,4,2,1,2
Poland,1994,2,1,1,7,1.69,80,4,2,36,42,1,4,1,2,36.5,36.6,36.55,53.12710571,18.02000427,70,-3,11:28:07,9,1,2,1,NA,4,4,5,1,3,3,5,5,2,3,2,6,2,1,1,1,2,8,2,zespol muzyczny,NA,NA,NA,NA,4,NA,NA,NA,NA,3,1,3,2,5,5,1,5,1,4,5,2,4,4,3,3,3,3,4,2,3,3,3,5,5,5,2,4,4,5,4,4,2,4,4,5,5,4,5,4,4,3,4,4,2,4,5,7,7,6,7,6,6,7,7,6,3,1,5,4,5,7,6,6,5,7,6,2,1,6,5,4,5,6,3,3,6,2,7,6,6,6,5,5,4,5,5,5,4,2,4,4,7,5,7,5,6,4,7,4,4,4,4,5,4,5,4,5,4,5,2,2,4,4,2,4,5,6,5,5,8,7,2,4,4,4,1,4,2,2,4,5,4,1,2,4,4,4,2,2,2,4,5,5,2,5,5,4,5,2,4,5,2,1,2,2,4,5,5,2,2,4,5,4,4,4,2,4,4,4,4,5,2,4,4,3,4,1,3
SMU,1994,2,1,1,1,1.68,56,3,2,0,0,2,NA,1,2,36.5,36.6,36.55,1.293106079,103.8558044,70,26,10:42:27,5,1,2,1,NA,4,4,1,NA,3,3,7,4,1,NA,2,7,3,1,3,1,1,NA,1,NA,NA,NA,NA,NA,NA,NA,NA,NA,NA,2,2,2,3,2,2,1,4,2,1,3,2,2,4,4,3,2,2,3,3,3,3,1,3,5,3,4,5,5,4,5,5,5,4,5,5,5,5,5,5,5,5,5,5,5,4,5,6,6,4,7,3,7,2,6,2,6,2,6,3,5,3,7,4,3,2,2,5,4,3,4,6,3,2,1,2,2,2,7,5,5,2,2,5,4,4,5,5,5,5,5,5,6,7,7,7,6,7,7,2,2,1,2,4,2,4,4,1,2,2,1,1,1,5,2,5,6,6,6,6,4,7,2,4,4,2,2,5,1,2,5,4,4,1,2,2,4,4,4,4,5,5,1,4,5,5,5,5,3,5,5,5,1,1,1,5,2,5,2,4,1,4,2,4,5,4,1,4,5,5,5,5,1,2,5,4,4,2,4
Poland,1994,2,2,1,7,1.6,69,3,2,3,1,1,10,1,2,36.61,36.53,36.57,52.25,21,56,1,10:40:30,9,1,1,2,1,4,2,2,2,8,6,5,5,2,2,2,4,2,1,1,3,1,NA,1,NA,NA,NA,NA,NA,NA,NA,NA,NA,NA,3,3,3,4,4,5,2,4,4,3,4,2,4,3,4,4,4,4,4,4,3,4,4,5,4,5,3,2,2,2,3,3,2,3,2,3,4,4,5,3,5,1,1,1,1,1,5,2,4,4,3,6,5,5,2,3,1,3,2,4,2,6,3,5,2,2,3,6,1,2,2,2,2,2,2,1,2,2,1,6,6,2,1,5,5,3,5,5,5,2,4,3,6,5,5,7,7,5,5,2,3,2,2,2,2,2,2,4,2,4,2,2,1,2,1,3,4,7,5,4,2,5,3,2,3,4,3,2,2,5,3,4,4,2,2,4,2,3,3,4,3,5,3,2,5,5,4,5,5,3,4,4,1,1,1,2,4,4,3,1,2,4,2,5,3,2,2,4,3,2,3,5,4,2,5,2,2,4,3
SMU,1994,1,1,2,6,1.71,61,4,2,0,0,2,NA,1,2,36.5,36.7,36.6,1.293106079,103.8558044,70,26,10:56:08,5,1,2,1,NA,4,4,5,NA,1,NA,8,7,2,1,2,8,1,NA,NA,1,1,NA,1,NA,NA,NA,NA,NA,NA,NA,NA,NA,NA,3,2,5,4,2,2,4,4,3,4,4,3,2,3,4,3,2,2,2,2,3,2,3,4,5,2,3,2,2,1,4,1,1,1,1,1,4,2,4,4,2,1,1,1,2,2,2,5,2,2,5,2,2,2,4,3,4,2,2,6,2,6,6,2,2,2,3,3,2,3,2,2,2,2,2,2,5,2,3,2,2,2,5,5,5,5,5,5,5,4,5,5,5,5,5,5,5,5,5,3,2,2,3,3,2,4,4,2,2,4,2,3,2,2,3,4,5,3,2,2,1,3,2,4,5,5,2,3,3,3,3,4,3,2,4,4,4,4,1,4,3,3,4,4,3,3,3,4,4,4,4,4,2,2,3,3,3,3,4,2,2,3,4,3,2,2,3,3,3,3,3,3,4,4,3,3,3,2,3
METU,1994,2,1,2,6,1.69,73,1,2,3,0,2,NA,1,2,36.4,36.8,36.6,39.91169739,32.84030151,74,12,11:18:18,3,2,2,1,NA,4,2,5,NA,1,NA,7,2,1,NA,2,6,1,NA,NA,1,1,NA,1,NA,NA,NA,NA,NA,NA,NA,NA,NA,NA,3,1,1,5,3,2,1,1,2,3,2,3,3,4,4,5,3,3,2,3,4,3,3,4,5,4,4,2,1,3,2,1,2,2,1,2,4,3,3,2,3,1,1,1,2,1,4,5,2,2,2,5,5,2,2,2,2,2,2,3,1,2,5,2,2,2,2,6,5,2,4,6,5,3,2,4,2,2,7,5,6,2,3,3,2,4,2,2,3,3,3,2,6,7,6,3,6,6,6,2,2,1,2,1,3,3,2,4,2,2,2,1,3,3,4,5,5,4,2,3,4,4,2,1,4,4,2,1,5,2,1,5,5,1,4,4,4,4,3,4,3,3,4,5,4,1,4,4,2,2,4,2,2,4,3,1,4,4,3,4,2,3,4,4,2,1,4,4,3,1,1,3,5,4,2,4,1,3,1
METU,1994,1,1,1,7,1.71,71,3,2,3,2,2,NA,1,2,36.3,36.9,36.6,39.91169739,32.84030151,78,8,09:50:48,3,2,1,1,NA,4,4,4,1,5,5,4,4,1,NA,2,6,1,NA,NA,2,1,NA,1,NA,NA,NA,NA,NA,NA,NA,NA,NA,NA,4,4,5,4,3,4,2,3,5,3,4,3,5,3,2,2,2,3,2,3,4,2,2,4,4,2,3,1,2,2,2,2,3,3,1,2,4,2,4,4,3,2,3,2,2,3,3,4,2,2,5,5,6,1,6,2,3,4,2,5,2,4,6,4,2,6,5,2,3,4,4,3,3,3,5,2,3,2,2,3,1,1,2,5,4,3,4,4,4,3,3,3,4,4,4,4,4,3,4,3,3,1,3,2,3,4,3,3,4,2,2,3,2,4,3,4,5,3,3,3,2,4,3,4,4,5,4,3,3,4,2,4,3,2,2,4,4,3,3,1,3,4,4,4,3,5,4,5,4,3,4,4,2,2,1,2,3,4,5,4,4,3,5,4,3,3,3,4,3,3,3,4,3,4,2,3,3,3,1
Oxford,1994,1,1,2,6,1.78,73,3,2,0,1,2,NA,1,2,36.4,36.8,36.6,51.75,-1.25,74,2.777777778,07:54:58,5,1,2,1,NA,4,4,5,NA,2,1,3,3,1,NA,2,8,1,NA,NA,3,1,NA,1,NA,NA,NA,NA,NA,NA,NA,NA,NA,NA,4,3,4,3,2,4,2,3,3,3,2,2,4,3,4,4,2,3,3,3,3,3,2,4,4,2,3,2,3,1,2,2,1,2,2,4,1,2,1,2,1,3,4,4,2,4,3,5,6,4,5,6,6,5,5,5,3,6,5,4,5,6,2,4,1,2,3,4,4,3,2,3,4,3,2,3,6,3,3,5,4,3,4,4,4,4,4,4,4,4,4,4,4,5,4,6,5,5,3,3,4,1,5,3,2,4,4,4,2,2,2,2,2,3,2,4,6,4,4,4,2,2,4,4,4,4,3,1,3,3,2,4,4,2,5,4,3,3,3,2,2,4,2,4,4,4,4,5,4,4,4,4,2,2,2,4,4,5,3,2,1,1,3,4,2,4,4,5,4,4,4,4,2,3,4,4,4,3,4
Poland,1994,2,1,1,7,1.65,45,4,2,21,1,2,NA,1,2,36.6,36.6,36.6,54.1000061,18.80000305,49,10,10:49:16,9,1,2,1,NA,4,4,4,1,3,1,5,5,2,1,2,8,6,1,4,1,1,NA,1,NA,NA,NA,NA,NA,NA,NA,NA,NA,NA,2,1,1,4,2,2,1,1,1,1,1,2,3,5,3,4,4,2,2,2,4,2,2,5,4,2,5,4,1,1,4,1,2,2,1,5,1,4,4,4,4,1,1,1,1,2,4,6,6,6,6,7,6,6,6,6,6,2,6,5,3,6,5,6,2,2,5,6,1,5,1,1,3,2,3,1,5,3,2,6,6,3,3,4,4,4,5,5,4,2,4,4,7,6,7,6,6,7,7,4,4,4,4,4,2,4,2,2,4,5,4,2,1,2,1,5,6,7,8,8,8,8,1,2,1,5,5,4,2,2,5,2,2,1,2,4,4,2,4,4,2,4,2,4,4,5,4,5,5,4,4,4,1,2,1,1,1,1,2,1,4,4,2,4,3,2,1,1,5,4,4,4,4,5,4,5,4,1,5
Kassel,1994,2,1,1,7,1.63,52,4,2,1,0,2,NA,1,2,36.5,36.7,36.6,NA,NA,55,5,10:20:36,1,1,1,1,NA,4,4,4,1,1,NA,7,6,1,NA,2,8,3,8,8,1,2,2,2,Yoga,Bogenschie?en,NA,NA,NA,1,10,NA,NA,NA,4,5,5,5,3,4,4,4,4,4,4,5,4,2,5,3,2,2,2,2,3,2,2,4,3,2,3,1,4,2,3,3,2,1,4,2,4,4,1,5,1,1,1,1,4,1,2,2,2,2,2,3,4,4,5,2,3,3,2,2,3,1,1,2,2,6,2,6,2,2,2,2,2,2,1,2,2,3,1,5,5,2,2,5,3,5,5,3,3,1,4,4,3,4,4,4,4,5,5,2,2,2,2,2,3,2,4,2,2,2,2,1,4,4,2,4,5,5,3,3,5,6,2,4,3,4,3,4,4,3,3,4,3,2,3,3,3,3,2,2,2,3,4,2,4,3,3,4,3,3,4,3,2,3,2,4,4,4,4,2,2,2,3,4,4,2,2,4,4,4,3,3,4,4,3,4,2,2,3
METU,1994,2,1,2,7,1.62,60,3,1,NA,NA,2,NA,1,2,36.2,37,36.6,39.91169739,32.84030151,71,8,10:59:45,3,2,2,1,NA,4,4,5,NA,8,8,3,2,1,NA,2,2,1,NA,NA,1,1,NA,1,NA,NA,NA,NA,NA,NA,NA,NA,NA,NA,5,4,3,5,5,4,3,2,4,4,4,5,4,1,3,3,3,3,3,3,3,3,3,2,4,2,2,4,4,2,3,2,2,2,2,2,2,2,4,2,4,2,2,2,2,2,4,6,2,4,5,6,4,4,6,4,4,4,5,4,4,5,4,2,4,2,4,6,4,4,4,4,4,4,2,4,3,2,4,6,4,2,4,5,5,5,5,5,5,5,5,5,6,6,6,6,4,4,4,2,4,3,2,2,3,2,2,1,2,1,2,2,4,2,3,5,6,6,2,2,2,1,1,1,3,5,3,4,3,3,5,5,4,1,1,3,5,2,3,3,2,4,4,4,4,4,4,3,3,3,3,3,2,2,2,3,4,3,4,2,2,4,4,4,3,2,1,4,4,4,3,2,1,3,5,4,3,1,3
Oslo,1994,2,1,1,5,1.67,80,3,2,1,0,2,NA,1,2,36.5,36.7,36.6,NA,NA,91,-2,11:04:52,4,1,1,1,NA,4,1,4,1,4,1,6,6,1,NA,2,4,3,1,5,1,1,NA,1,NA,NA,NA,NA,NA,NA,NA,NA,NA,NA,2,2,2,5,3,4,2,2,2,2,3,4,4,4,2,4,3,4,3,4,4,4,4,3,4,4,4,3,4,3,4,2,2,3,2,4,2,3,3,2,2,2,2,2,1,4,2,6,4,5,5,4,4,1,5,4,2,5,5,2,3,5,5,7,2,5,2,4,2,2,2,3,2,2,2,3,4,2,2,2,2,2,3,4,4,4,4,4,4,3,4,4,3,4,4,3,5,4,4,3,4,1,3,2,3,3,4,3,4,3,2,2,2,5,2,3,2,2,1,1,1,1,4,4,4,2,2,2,4,4,2,5,4,2,4,4,3,3,3,3,1,2,4,4,3,3,2,4,3,2,4,3,2,3,2,1,1,4,4,1,2,4,3,3,4,4,4,3,4,4,4,3,4,3,3,3,3,2,4
Tsinghua,1994,2,3,2,3,1.56,51,3,2,0,0,2,0,1,2,36.5,36.7,36.6,30.58009338,114.273407,71,16,10:43:00,7,3,2,1,0,4,1,5,0,3,2,2,2,1,1,2,2,1,1,1,1,2,1,2,o,NA,NA,NA,NA,NA,NA,NA,NA,NA,2,4,4,4,4,2,1,2,4,3,5,3,4,3,3,4,3,2,2,3,4,2,2,3,4,2,3,4,3,2,4,2,4,3,4,4,5,4,3,4,3,2,3,2,2,2,4,6,4,4,6,6,2,6,6,4,4,2,4,4,2,6,4,6,4,6,4,4,2,2,2,4,4,4,4,2,3,2,4,4,6,4,4,3,3,4,3,3,4,4,4,4,3,2,4,5,6,6,4,3,3,3,3,2,2,3,3,3,2,2,2,2,3,3,2,3,2,4,1,2,2,2,2,4,4,4,2,2,2,3,3,4,2,1,1,4,4,2,4,4,2,3,4,4,4,3,3,3,3,2,4,2,3,3,3,3,3,4,4,2,2,4,3,4,4,2,3,4,2,2,2,2,4,3,3,3,3,3,3
Poland,1994,2,1,2,6,1.6,53,4,2,27,6,2,NA,1,2,36.5,36.7,36.6,52.28619385,20.80969238,48,8,11:15:07,9,1,2,1,NA,1,4,5,1,3,5,5,3,1,NA,2,8,2,1,1,1,1,NA,1,NA,NA,NA,NA,NA,NA,NA,NA,NA,NA,3,4,2,3,3,4,1,3,2,3,4,1,3,5,4,5,4,3,4,1,3,2,3,5,4,3,4,4,4,4,4,4,4,4,2,4,4,4,4,4,4,2,4,4,4,2,4,6,5,5,5,7,5,4,4,5,3,2,2,6,2,5,6,5,2,6,3,3,2,5,2,2,5,5,5,2,7,7,2,4,3,5,5,5,4,3,5,4,4,3,4,4,7,3,5,3,7,7,7,4,4,4,4,3,3,4,4,2,3,4,3,2,2,3,2,5,8,4,4,4,4,1,4,4,2,5,3,3,3,2,4,4,3,3,4,2,2,2,4,4,3,4,4,5,5,5,5,5,4,2,5,4,5,4,4,4,4,2,2,4,2,4,4,4,3,2,2,2,4,4,3,4,5,4,4,4,4,1,4
Tsinghua,1994,1,1,2,7,1.55,40,2,2,5,1,2,0,1,2,36.5,36.7,36.6,30.58009338,114.273407,60,13,10:33:09,7,3,2,1,0,4,4,5,0,4,3,7,6,1,1,2,6,2,4,3,3,2,1,1,±ÏÒµÂÛÎÄ½»Á÷Ð¡×é,NA,NA,NA,NA,2,NA,NA,NA,NA,4,5,2,4,4,4,1,2,2,4,4,2,2,2,4,3,2,2,2,3,2,3,3,2,5,3,3,4,5,2,4,4,2,5,4,4,5,5,4,4,5,4,4,2,2,2,4,3,3,3,3,5,3,3,3,3,3,3,3,3,2,3,3,5,3,3,3,5,3,3,5,5,3,3,2,3,5,2,3,3,5,3,3,5,5,4,5,5,4,4,5,5,4,2,4,4,5,3,5,2,2,2,2,2,2,2,2,2,2,2,2,2,1,4,2,3,2,4,3,2,4,3,2,4,4,4,2,4,2,4,4,4,4,2,2,4,4,2,4,4,2,2,4,2,4,2,2,4,4,4,4,5,2,2,2,2,4,4,4,2,2,4,2,4,4,2,2,4,2,2,2,4,4,2,4,4,4,2,4
Portugal,1994,2,1,1,7,1.68,61,4,2,0,2,2,NA,1,2,36.6,36.6,36.6,38.71670532,-9.133300781,42,13,11:10:13,8,1,1,2,2,4,4,4,4,5,4,6,6,1,NA,2,6,1,NA,NA,4,1,NA,1,NA,NA,NA,NA,NA,NA,NA,NA,NA,NA,3,3,2,3,3,5,3,2,2,3,2,5,1,3,2,4,3,2,2,3,3,4,3,4,3,2,2,4,4,3,4,4,4,5,4,4,4,4,5,3,4,2,3,3,3,3,4,3,1,1,2,2,6,3,2,1,1,1,1,3,1,2,1,1,1,2,3,6,5,1,2,2,1,4,4,4,1,1,2,6,6,2,2,5,5,5,5,5,5,5,5,5,4,6,6,5,4,4,4,2,2,2,3,2,2,2,2,2,2,5,3,1,3,2,3,5,5,2,1,5,2,1,1,4,2,4,4,3,3,4,4,2,1,3,4,5,4,4,5,4,4,4,3,4,4,2,1,1,3,3,4,4,2,4,3,3,5,4,2,1,3,3,3,4,4,5,1,5,5,5,4,3,1,5,3,3,2,2,3
Tsinghua,1994,2,1,1,7,1.6,52.5,3,2,4,0,2,0,1,2,36.7,36.5,36.6,30.58009338,114.273407,65,16,10:38:00,7,3,2,1,0,4,4,5,0,3,3,4,1,1,1,2,8,1,1,4,1,2,1,2,NA,NA,NA,NA,NA,NA,NA,NA,NA,NA,2,2,1,3,4,3,1,1,2,1,1,1,1,1,3,2,3,4,3,2,2,3,4,2,4,4,2,5,5,5,5,3,3,4,4,5,5,5,5,5,4,2,3,2,4,3,4,7,3,4,6,7,3,6,3,4,2,2,5,4,5,1,6,3,5,2,2,2,4,1,2,5,2,4,1,4,4,2,4,2,1,5,6,4,4,4,4,5,5,5,5,5,4,2,4,3,3,4,4,2,2,1,1,1,1,1,1,1,2,1,4,3,1,4,2,1,3,4,6,5,1,1,2,4,5,4,2,3,3,4,4,5,2,1,4,5,5,2,2,2,1,1,1,3,5,3,2,5,5,3,5,4,2,2,3,2,3,2,4,1,2,3,2,4,4,1,1,4,4,2,2,5,1,3,4,2,3,3,2
VCU,1994,2,1,1,6,1.6256,56.81818182,4,1,0,0,2,NA,1,2,36.61111111,36.61111111,36.61111111,37.4960022,-77.47119904,87,13.33333333,09:45:50,5,1,1,1,NA,3,1,2,1,5,4,6,3,1,NA,2,4,3,1,8,1,1,NA,2,Student Admissions Ambassadors,NA,NA,NA,NA,5,NA,NA,NA,NA,3,3,4,4,4,2,3,3,3,4,5,5,4,2,3,4,2,2,2,2,2,2,3,3,4,2,2,4,4,2,4,2,2,2,2,4,4,2,4,4,2,2,2,4,4,4,2,2,2,2,2,2,2,2,2,2,1,2,2,2,2,2,2,2,2,2,2,2,2,3,2,2,2,2,2,2,2,2,2,2,2,2,2,5,4,4,4,3,4,4,4,4,7,6,6,6,5,6,5,2,2,2,2,2,2,2,2,4,2,2,4,3,2,4,2,5,6,6,4,5,5,3,2,4,2,4,3,2,2,2,4,4,4,2,4,4,2,4,4,4,2,2,4,4,4,4,4,5,3,4,4,3,2,3,2,2,4,4,4,2,2,4,3,4,2,4,2,2,4,4,4,4,2,4,4,4,4,2,2
VCU,1994,1,2,1,1,1.8034,70.45454545,3,2,0,0,2,NA,1,2,36.72222222,36.5,36.61111111,37.55220032,-77.45819855,94,13.33333333,11:56:23,5,1,2,1,NA,4,1,5,NA,3,3,3,5,2,1,2,1,3,1,2,1,1,NA,1,NA,NA,NA,NA,NA,NA,NA,NA,NA,NA,3,1,3,3,3,3,1,2,3,3,2,4,3,3,3,3,3,3,3,3,3,3,3,3,3,3,3,4,4,2,4,4,3,4,5,5,4,4,4,4,4,4,4,4,4,4,4,4,4,4,4,4,4,4,4,4,4,4,4,4,4,4,4,4,4,4,4,4,4,4,4,4,4,4,4,4,4,4,4,4,4,4,4,4,4,4,4,4,4,4,4,4,6,5,5,5,5,5,5,2,2,2,2,4,2,4,2,2,2,5,3,4,1,4,1,4,4,3,3,2,1,1,4,4,2,2,2,2,4,2,5,1,1,2,5,1,2,2,3,2,2,2,4,5,4,2,2,4,2,3,2,2,2,2,2,2,4,5,2,2,2,4,4,4,4,2,2,4,4,2,1,2,2,4,2,2,2,2,2
UCSB,1994,1,1,1,7,1.7526,79.54545455,2,1,5,0,2,NA,1,2,36.44444444,36.83333333,36.63888889,34.50210571,-120.1287003,80,8.333333333,NA,5,1,1,1,NA,3,3,4,1,3,1,5,3,1,NA,2,3,3,1,7,2,2,3,1,NA,NA,NA,NA,NA,NA,NA,NA,NA,NA,1,1,1,4,1,2,1,1,1,1,1,1,3,4,4,5,2,4,4,2,4,5,4,4,4,3,4,4,5,2,5,4,2,3,4,2,4,4,4,5,4,1,1,1,4,2,4,6,5,4,6,7,2,2,7,2,6,2,7,1,5,5,7,5,1,2,5,3,3,4,2,2,4,4,3,3,1,3,2,4,3,5,5,5,2,5,5,4,5,5,5,5,4,6,5,6,3,3,4,1,3,1,2,1,2,2,3,1,1,2,4,3,1,1,2,1,3,4,2,2,2,2,2,2,4,4,2,2,4,3,3,4,3,1,5,5,5,3,5,4,1,1,5,4,4,2,2,2,1,3,4,1,4,4,4,3,4,2,4,5,2,3,4,4,4,2,2,4,4,5,3,3,1,4,4,3,5,3,2
VCU,1994,2,1,1,7,1.6002,54.54545455,3,2,20,0,2,NA,1,2,36.61111111,36.66666667,36.63888889,37.55220032,-77.45819855,64,10.55555556,10:49:28,5,1,1,1,NA,4,4,4,2,1,NA,5,4,1,NA,2,6,1,NA,NA,1,1,NA,1,NA,NA,NA,NA,NA,NA,NA,NA,NA,NA,4,3,4,3,2,4,1,3,4,4,5,4,3,2,3,3,3,2,2,3,2,3,3,3,4,3,3,4,4,4,4,5,4,5,2,4,4,4,4,4,2,4,4,3,4,4,4,2,2,1,2,2,3,2,2,1,1,2,1,2,2,2,1,2,1,1,1,2,1,1,1,1,1,1,1,1,1,1,1,1,1,1,1,4,4,4,4,4,3,2,2,2,2,5,5,5,3,3,3,1,1,1,1,1,1,1,1,1,1,1,3,2,1,2,5,3,3,2,2,2,2,2,2,2,4,4,3,5,4,4,4,4,2,2,2,2,2,2,2,2,2,2,4,4,5,5,4,5,4,4,3,3,1,1,1,2,5,4,4,1,2,2,2,2,4,4,1,3,4,3,3,3,2,4,3,4,4,4,4
Tsinghua,1994,2,1,2,7,1.55,46,2,2,NA,NA,2,0,1,2,36.6,36.7,36.65,30.66670227,104.0667114,62,15,10:50:35,7,3,2,1,0,4,2,5,0,8,1,6,5,1,1,2,3,2,1,1,8,2,1,2,NA,NA,NA,NA,NA,NA,NA,NA,NA,NA,3,1,2,4,4,5,1,2,2,2,3,1,2,3,3,3,4,4,3,3,2,4,4,2,5,3,3,4,2,2,2,2,1,2,4,4,4,2,4,2,4,2,2,2,2,2,4,5,5,5,5,4,4,4,6,5,2,6,4,6,2,6,4,6,2,3,2,6,5,1,6,5,2,5,2,2,2,2,6,3,6,4,4,5,4,5,3,5,5,5,5,5,3,2,2,5,4,4,4,2,2,4,2,2,3,2,2,3,2,2,2,4,2,2,2,4,4,6,4,4,4,4,2,2,5,5,2,5,2,2,5,3,2,2,1,2,4,2,4,4,2,2,4,4,4,2,4,4,3,3,4,2,2,2,2,4,3,4,3,2,2,3,4,4,4,3,2,4,2,2,2,5,2,3,5,4,4,2,2
SMU,1994,2,1,2,3,1.56,42,2,2,0,0,2,NA,1,2,36.6,36.7,36.65,1.293106079,103.8558044,70,26,10:43:14,5,1,2,1,NA,4,2,5,NA,1,NA,3,1,1,NA,2,8,1,NA,NA,2,1,NA,1,NA,NA,NA,NA,NA,NA,NA,NA,NA,NA,3,2,2,3,3,4,4,3,2,2,3,2,3,3,3,3,2,3,3,3,3,2,3,3,3,3,3,3,3,2,4,3,4,4,2,3,4,2,2,3,3,2,3,2,3,2,3,4,5,4,4,4,4,4,4,3,2,3,4,4,4,2,5,2,6,4,3,2,3,4,4,4,3,6,2,2,3,2,4,3,4,3,2,4,3,4,3,3,3,3,3,3,3,4,4,4,5,5,5,2,4,3,3,3,2,3,3,3,3,2,2,4,2,4,2,2,2,4,2,3,2,2,2,4,4,4,2,2,2,3,4,4,4,2,4,4,4,3,4,3,3,3,4,4,3,4,3,4,3,3,4,3,2,2,3,4,4,4,4,3,4,4,4,4,4,2,4,3,4,4,4,3,4,3,4,3,3,4,2
Tsinghua,1994,2,1,2,7,1.57,43,4,2,0,0,2,0,1,2,36.4,36.9,36.65,30.58009338,114.273407,60,13,11:18:47,7,3,2,1,0,4,4,5,0,2,1,5,4,1,1,1,1,1,1,1,8,2,1,2,NA,NA,NA,NA,NA,0,0,0,0,0,4,4,3,4,4,4,3,4,4,4,4,4,4,1,1,1,2,2,2,3,1,2,2,1,4,2,2,4,4,2,4,2,2,4,2,4,3,2,2,3,2,2,2,2,2,2,2,3,3,2,5,3,3,3,2,3,3,5,5,2,2,2,2,2,3,4,3,3,3,3,3,3,2,2,3,2,5,3,2,3,4,3,3,4,4,4,4,4,4,3,4,4,6,2,4,5,6,5,5,2,2,2,2,2,2,2,2,2,2,2,2,3,2,2,2,4,6,4,1,2,2,2,2,4,4,4,1,2,4,4,4,4,2,2,3,3,3,2,2,3,3,3,3,4,4,3,3,4,4,3,5,4,2,2,2,2,2,4,2,2,2,3,2,4,3,2,2,4,4,4,3,4,4,4,4,4,4,2,4
Serbia,1994,2,1,1,7,1.68,62.3,3,2,0,0,2,NA,1,2,36.7,36.6,36.65,44.81860352,20.46809387,65,8,09:45:38,6,1,2,1,NA,4,4,4,2,4,3,4,4,1,NA,2,5,1,NA,NA,1,1,NA,1,NA,NA,NA,NA,NA,NA,NA,NA,NA,NA,5,5,5,4,4,4,5,4,4,4,5,4,3,3,4,5,2,2,3,3,3,3,3,5,5,2,3,4,4,4,4,2,2,3,1,4,4,4,4,3,3,2,3,2,2,2,4,2,1,2,2,5,8,2,1,1,1,1,1,7,1,2,7,2,2,2,NA,8,1,2,1,1,1,NA,1,1,1,1,2,6,6,1,1,5,5,4,5,5,5,4,5,5,3,4,4,4,3,3,3,2,3,2,2,2,2,1,1,3,1,2,3,1,2,1,2,3,4,4,1,2,1,4,2,3,3,5,3,3,4,3,4,3,2,3,3,2,2,3,4,3,3,3,3,3,5,5,1,1,1,3,3,3,3,2,1,2,2,4,3,3,2,3,3,2,4,1,2,4,4,1,2,5,1,5,4,4,3,3,2
Tsinghua,1994,2,3,1,7,1.68,60,1,2,NA,0,2,0,1,1,36.5,36.8,36.65,30.58009338,114.273407,66,13,10:29:48,7,3,2,1,0,4,4,5,0,4,1,2,2,1,1,2,8,3,4,8,1,2,1,2,NA,NA,NA,NA,NA,NA,NA,NA,NA,NA,5,2,3,5,4,5,2,3,2,3,5,1,4,2,5,5,3,3,3,4,3,5,3,4,5,2,2,5,4,2,5,5,3,5,5,5,5,5,5,5,2,5,3,2,2,4,4,7,6,6,6,7,5,7,6,6,6,7,2,5,6,7,6,4,1,4,1,3,3,1,4,5,3,3,2,2,4,3,6,2,2,2,3,5,4,5,5,5,4,4,4,5,2,1,3,5,4,2,2,2,3,1,1,1,1,1,4,2,1,1,1,2,1,4,1,5,5,7,4,4,1,1,1,3,3,4,2,1,1,1,5,5,2,1,4,3,3,2,5,4,3,3,4,4,3,4,4,5,3,4,5,3,3,4,2,1,2,5,1,1,1,3,5,1,5,5,4,3,2,2,4,4,2,3,5,4,3,3,4
VCU,1994,2,1,2,3,1.5748,58.63636364,3,2,1,0,2,NA,1,2,36.61111111,36.72222222,36.66666667,38.79319763,-77.53659821,99,12.77777778,11:28:58,5,1,2,1,NA,4,4,5,NA,3,2,5,5,1,NA,2,2,3,1,3,1,1,NA,1,NA,NA,NA,NA,NA,NA,NA,NA,NA,NA,1,5,5,5,5,1,5,1,5,5,1,5,5,3,3,4,3,2,3,3,3,3,3,5,3,1,3,1,1,1,1,1,1,1,1,1,1,1,1,1,1,1,1,1,1,1,1,1,1,1,1,1,1,1,1,7,1,7,1,1,1,1,1,1,1,1,7,1,7,1,1,1,7,7,7,7,7,7,1,7,7,7,7,3,3,3,3,3,3,3,3,3,1,1,1,1,1,1,1,1,1,1,5,1,1,1,1,1,1,1,5,1,5,1,5,5,2,4,1,2,1,1,3,3,3,2,2,3,1,2,3,4,4,1,1,1,1,1,1,1,1,1,1,1,1,1,1,1,1,1,1,1,1,1,1,1,1,1,1,1,1,1,1,1,1,1,1,1,1,1,1,1,1,1,1,1,1,1,1
VCU,1994,2,1,1,7,1.6256,56.81818182,4,1,6,0,2,NA,1,2,36.66666667,36.72222222,36.69444444,37.50230408,-77.56929779,45,17.77777778,11:32:49,5,1,2,1,NA,4,4,4,2,5,3,3,3,2,8,2,8,3,3,8,3,1,NA,1,NA,NA,NA,NA,NA,NA,NA,NA,NA,NA,1,3,3,2,1,2,4,3,2,1,5,4,1,3,2,4,2,2,1,2,1,3,3,2,5,1,3,4,3,4,4,1,1,3,2,4,4,4,4,4,4,1,1,1,4,2,4,1,5,1,2,2,4,2,3,5,1,6,5,1,5,5,4,2,1,4,1,2,1,2,1,1,1,1,1,1,1,1,1,3,2,1,1,5,5,3,4,5,5,4,3,4,3,1,1,1,1,1,1,3,4,1,3,1,3,3,2,2,3,2,2,4,2,1,2,5,7,7,6,6,6,6,3,4,5,5,4,1,3,5,3,5,2,1,4,4,4,4,2,2,1,5,4,2,5,5,5,5,3,5,4,3,1,1,3,5,5,5,2,2,2,4,3,4,2,5,3,3,5,5,5,5,1,3,5,5,3,2,4
UCSB,1994,1,1,2,6,1.76,95.45454545,2,1,25,0,2,NA,1,2,36.38888889,37,36.69444444,34.4329071,-119.8370972,86,12.22222222,10:26:00,5,1,2,1,NA,4,4,5,NA,2,2,4,4,1,NA,2,1,1,NA,NA,1,1,NA,1,NA,NA,NA,NA,NA,NA,NA,NA,NA,NA,3,1,1,4,2,3,1,1,2,2,2,2,3,4,4,4,3,4,4,4,4,3,4,3,5,3,4,4,4,4,4,4,4,4,4,4,4,2,4,3,4,4,2,3,1,3,4,5,5,5,5,6,4,5,6,5,3,2,5,5,5,7,5,6,4,6,3,5,3,3,3,3,6,6,3,3,3,5,2,5,5,5,7,4,4,4,4,4,3,5,4,4,7,6,6,6,7,6,7,2,3,4,2,2,2,2,2,2,2,2,5,3,2,2,2,5,2,2,2,2,2,2,3,4,4,2,1,2,4,5,5,5,4,2,4,5,5,3,2,4,1,4,4,5,4,3,1,4,3,1,3,3,2,4,2,2,1,2,2,1,3,5,4,2,4,1,2,4,4,2,2,2,4,2,2,2,4,2,5
Serbia,1994,2,1,2,7,1.65,50,3,2,8,6,2,NA,1,2,36.5,36.9,36.7,44.81860352,20.46809387,53,6,10:20:12,6,1,2,1,NA,4,4,5,NA,6,5,2,2,1,NA,2,8,1,NA,NA,3,1,NA,1,NA,NA,NA,NA,NA,NA,NA,NA,NA,NA,4,1,4,4,4,4,4,2,2,2,4,5,4,4,3,5,3,3,4,3,4,3,4,5,4,4,4,1,1,1,1,1,2,2,1,1,4,4,2,4,2,1,1,1,2,1,1,4,2,4,2,8,8,8,4,NA,2,5,2,2,8,2,4,2,2,4,NA,2,NA,2,4,2,NA,NA,NA,NA,NA,NA,4,4,NA,4,NA,4,4,3,4,4,4,3,3,4,7,5,7,6,7,6,7,2,2,1,2,2,4,2,1,1,4,2,2,4,2,2,2,5,7,7,7,7,7,7,2,3,3,4,4,3,4,3,3,2,2,4,2,3,2,4,3,4,4,4,4,3,3,4,3,3,2,2,2,4,2,4,3,4,2,4,4,4,2,3,3,4,4,3,2,4,4,4,4,4,2,4,4,4,3,2,4
Tsinghua,1994,2,1,2,7,1.68,55,3,2,0,0,2,0,1,2,36.8,36.6,36.7,31.45930481,104.7542114,70,14,11:14:29,7,3,2,1,0,4,2,5,0,3,1,4,3,1,1,2,8,1,1,1,2,2,1,1,ÕÐÉú¾ÍÒµ´¦Ñ§ÉúÖúÀí²¿,ÉçÍÅ,ÇÞÊÒ,°à¼¶,NA,4,2,NA,NA,NA,3,4,3,4,4,5,1,1,2,5,3,2,3,2,2,2,4,3,2,3,2,3,4,2,2,4,1,1,3,1,2,1,2,1,4,4,3,2,2,1,2,1,1,2,2,1,1,3,4,4,4,3,3,2,5,5,4,3,2,5,2,2,4,3,2,3,3,3,3,4,4,5,3,4,4,3,6,3,5,5,5,3,4,5,5,5,4,5,5,4,3,3,3,1,4,4,2,2,3,3,2,2,2,4,2,4,2,3,1,4,3,4,1,2,1,3,5,4,2,2,2,4,1,4,5,4,1,4,3,3,3,5,4,2,4,2,2,3,1,5,4,2,3,2,2,3,4,5,4,2,3,4,3,2,3,3,4,2,2,2,2,4,4,4,3,2,2,4,4,4,2,1,2,2,3,3,3,3,4
Tsinghua,1994,2,1,1,7,1.6,53,3,2,1,0.5,2,0,1,2,36.4,37,36.7,30.58009338,114.273407,61,10,10:17:55,7,3,2,1,0,4,4,5,0,3,2,3,2,1,1,1,8,1,1,1,1,2,1,1,Éç»áÈÏÖªÑ§Ï°Ð¡×é,NA,NA,NA,NA,5,NA,NA,NA,NA,3,3,2,3,3,4,2,3,2,2,4,2,3,3,4,3,3,3,3,3,3,3,3,2,3,3,3,2,2,2,3,2,2,2,2,3,2,2,2,2,2,2,2,2,2,3,2,2,2,2,2,4,2,2,2,2,2,2,2,6,2,2,3,3,3,2,3,2,2,2,2,2,2,2,2,2,2,2,2,3,2,3,2,4,4,4,4,4,4,4,4,4,3,2,4,6,5,5,5,2,2,3,2,2,3,2,2,4,2,2,2,4,2,2,2,3,3,4,3,3,2,3,2,4,5,3,1,3,4,4,3,5,3,2,5,5,2,2,3,4,3,4,4,4,3,4,4,4,3,4,4,3,4,3,4,3,2,2,3,4,4,3,3,4,4,4,2,4,4,2,2,4,2,4,3,4,4,1,4
SMU,1994,2,1,1,3,1.61,52,2,2,1,0,2,NA,1,2,36.8,36.6,36.7,1.293106079,103.8558044,71,26,10:30:50,5,1,2,1,NA,4,1,5,NA,1,NA,6,3,2,2,2,8,3,1,5,1,1,NA,1,NA,NA,NA,NA,NA,NA,NA,NA,NA,NA,2,1,2,1,5,5,1,2,3,2,2,2,3,5,5,5,1,4,4,4,5,1,5,1,5,4,5,2,4,1,5,3,1,1,4,2,1,1,3,3,1,1,1,1,1,3,1,3,5,5,3,4,6,1,7,7,3,3,6,2,1,7,5,6,7,5,5,7,1,3,2,4,5,6,5,5,6,6,1,3,3,1,6,1,1,1,1,1,1,1,1,1,5,7,2,6,6,3,5,4,4,5,2,5,5,4,3,1,4,3,2,2,2,3,1,5,6,4,5,4,1,3,2,5,5,1,1,1,3,5,2,5,5,2,4,5,5,4,1,5,2,1,5,4,3,5,1,3,1,1,5,1,1,1,4,2,3,4,3,4,4,4,4,5,5,1,3,3,4,1,3,3,4,3,4,1,1,1,5
Tsinghua,1994,1,1,2,7,1.72,75,3,2,0,0,2,0,1,2,36.8,36.6,36.7,30.58009338,114.273407,66,13,10:29:13,7,3,2,1,0,4,3,5,0,8,1,4,3,1,1,2,8,3,1,1,1,2,1,2,NA,NA,NA,NA,NA,NA,NA,NA,NA,NA,1,4,1,1,3,4,1,3,1,1,2,4,2,3,4,3,3,4,1,3,4,3,3,4,4,3,1,4,3,2,2,3,2,2,4,4,4,4,4,4,1,2,2,2,4,2,4,5,3,4,5,6,3,7,5,5,6,4,4,4,5,4,2,5,4,4,1,4,2,1,2,6,2,5,5,2,2,4,4,2,3,1,4,5,5,5,4,5,5,5,5,5,2,3,4,5,6,6,4,2,4,2,3,5,1,4,5,2,5,2,2,4,2,2,2,4,3,4,1,4,1,4,3,4,5,5,2,1,1,1,1,4,4,2,3,3,3,3,3,4,2,2,4,4,4,3,3,4,4,3,4,4,2,2,2,3,3,3,4,3,4,5,4,4,4,3,3,4,3,3,4,3,3,3,3,3,4,3,3
METU,1994,2,1,1,5,1.65,48,2,2,2,1,1,3,1,2,36.6,36.8,36.7,39.91169739,32.84030151,72,8,11:14:40,3,2,2,1,NA,4,4,4,1,1,NA,2,2,1,NA,2,5,1,NA,NA,1,1,NA,1,NA,NA,NA,NA,NA,NA,NA,NA,NA,NA,4,2,2,4,3,4,1,2,1,2,4,1,3,5,5,5,3,3,4,4,5,4,4,5,5,3,5,4,4,4,4,4,4,4,4,4,4,4,4,4,4,4,3,4,4,4,4,2,6,6,7,6,7,6,6,6,6,7,7,5,6,6,6,2,4,2,2,6,4,6,5,5,5,2,2,1,2,2,5,6,6,5,3,2,2,2,2,3,2,2,1,1,6,5,5,4,4,3,3,2,3,4,4,2,4,5,5,2,4,5,3,1,2,4,1,4,8,5,5,8,6,5,4,2,5,5,2,3,2,5,1,5,4,2,3,4,4,2,4,2,3,4,5,3,4,4,4,4,2,4,4,2,4,4,4,2,1,4,3,3,3,4,4,4,4,4,2,2,4,4,4,4,2,5,5,4,4,1,5
SMU,1994,2,1,2,4,1.63,52.4,3,2,5,0,2,NA,1,2,36.6,36.8,36.7,1.293106079,103.8558044,70,26,10:24:49,5,1,2,1,NA,4,4,5,NA,8,8,5,5,1,NA,2,2,1,NA,NA,1,1,NA,1,NA,NA,NA,NA,NA,NA,NA,NA,NA,NA,3,2,2,4,2,3,3,3,3,3,3,4,3,3,3,5,2,3,2,2,3,3,2,3,4,2,3,4,4,3,4,4,4,5,4,4,3,3,3,4,3,3,3,4,3,4,3,3,3,3,3,3,5,3,5,5,4,5,3,3,3,5,4,5,4,5,3,4,3,3,5,4,3,3,3,3,3,3,5,3,4,3,4,5,5,5,5,5,5,5,5,5,1,3,3,3,3,3,3,2,2,3,2,2,2,2,2,2,2,2,2,4,2,4,3,4,4,6,3,4,3,3,3,3,4,2,2,3,3,3,3,4,4,2,4,4,4,4,3,2,3,3,3,3,3,4,3,3,4,3,3,4,3,2,3,2,2,4,4,2,4,4,3,3,3,2,4,3,4,3,3,3,4,2,3,2,2,4,2
SMU,1994,2,1,2,7,1.67,51.5,1,1,0,0,2,NA,1,2,36.7,36.7,36.7,1.293106079,103.8558044,70,27,09:43:44,5,1,2,1,NA,4,4,5,NA,5,4,3,2,1,NA,2,8,1,NA,NA,1,1,NA,1,NA,NA,NA,NA,NA,NA,NA,NA,NA,NA,1,1,1,5,1,5,1,1,1,1,1,1,4,5,4,5,1,1,4,5,5,4,5,3,5,5,4,5,5,2,5,5,5,2,5,5,4,2,4,5,5,1,1,1,2,5,5,5,6,6,6,2,6,6,5,6,5,2,4,6,2,6,4,6,4,6,3,6,6,6,6,6,6,6,3,6,6,6,6,6,6,6,2,5,5,4,5,5,5,5,5,5,3,7,1,2,2,2,2,4,4,1,3,4,4,4,4,4,4,2,1,4,2,5,4,4,5,1,1,1,1,4,1,2,3,2,2,4,2,2,4,4,4,1,3,4,4,3,4,4,1,1,5,5,2,1,1,2,2,1,3,4,3,4,3,4,3,1,4,1,4,4,4,2,4,1,2,2,4,1,1,1,4,4,2,2,1,2,5
Bamberg,1994,2,1,2,7,1.72,93,2,1,21,0,2,NA,1,2,36.8,36.6,36.7,49.00779724,8.419906616,88,10,12:04:36,1,1,3,1,NA,4,4,5,NA,2,2,3,1,1,NA,1,NA,1,NA,NA,1,1,NA,2,Ergotherapie,NA,NA,NA,NA,1,NA,NA,NA,NA,2,2,2,1,5,2,1,1,4,1,1,1,1,5,5,4,4,4,4,4,5,4,4,5,4,2,5,5,4,4,5,4,4,5,4,5,4,5,5,5,5,4,2,2,2,5,5,7,7,6,6,6,6,6,5,7,3,1,4,5,5,6,5,7,3,3,3,3,3,5,3,3,6,5,2,4,3,3,2,3,3,5,3,2,2,2,2,3,3,3,2,2,7,3,3,5,6,6,5,5,5,2,5,5,4,5,5,4,5,4,2,1,2,3,1,1,2,4,3,2,4,3,1,5,2,4,2,4,2,2,3,4,5,1,2,5,5,2,3,3,2,5,2,5,3,5,4,4,3,2,3,2,2,4,2,2,2,3,3,1,3,4,3,3,4,3,2,4,4,5,4,4,3,3,5,3,2,4,3
VCU,1994,2,1,2,7,1.6002,83.63636364,2,2,3,0,2,NA,1,2,36.66666667,36.77777778,36.72222222,37.55220032,-77.45819855,82,11.11111111,10:56:06,5,1,2,1,NA,4,2,5,NA,5,4,5,5,2,1,2,6,3,1,1,2,1,NA,1,NA,NA,NA,NA,NA,NA,NA,NA,NA,NA,3,2,1,5,3,4,1,3,1,1,5,2,2,4,4,4,3,3,3,5,4,3,5,5,5,2,4,2,4,4,2,4,4,4,3,2,2,2,2,4,2,4,4,2,4,2,2,2,1,2,5,5,5,2,5,1,2,1,1,1,2,4,1,6,1,1,1,2,1,1,1,2,1,2,2,1,1,1,2,1,1,1,1,5,5,5,5,5,5,5,5,5,7,7,6,5,7,7,7,2,2,2,2,2,2,3,2,2,3,2,1,2,1,2,1,5,8,7,6,6,2,4,2,5,5,4,1,3,1,1,2,5,4,2,5,5,4,5,2,4,2,4,4,4,4,4,4,5,4,4,4,4,1,1,1,1,4,4,4,3,2,4,5,2,3,1,2,5,5,5,5,2,4,1,1,1,4,3,1
VCU,1994,2,1,1,7,1.5748,59.09090909,4,2,0,0,2,NA,1,2,36.67,36.77777778,36.72388889,37.55769348,-77.37689972,74,16.66666667,11:00:25,5,1,1,1,NA,4,4,4,1,5,3,5,3,1,NA,2,3,1,NA,NA,1,1,NA,2,Thandavam (dance team),VCU Bhangra (dance team),NA,NA,NA,3,5,NA,NA,NA,3,3,3,3,2,3,2,2,2,4,4,3,4,3,3,3,3,3,3,2,3,3,3,3,4,3,3,4,5,4,4,4,4,4,5,5,4,4,4,4,4,3,3,4,4,4,4,3,5,2,3,2,5,2,2,3,2,2,2,4,2,2,2,5,2,2,2,5,2,2,2,2,2,2,2,2,1,2,2,3,2,1,2,5,5,5,5,5,5,5,5,5,3,5,5,5,5,5,5,2,4,2,3,3,2,4,2,2,2,2,2,2,2,4,2,3,3,5,3,3,2,3,2,3,3,3,3,3,2,2,2,4,2,2,3,3,3,3,4,4,2,4,4,4,4,4,3,5,4,3,4,3,1,1,1,2,2,2,2,2,2,4,3,4,2,2,2,4,4,4,3,4,3,3,3,4,3,2,3
Tsinghua,1994,2,4,2,7,1.65,57,3,1,0,0,2,0,1,2,36.8,36.7,36.75,30.58009338,114.273407,60,13,10:51:15,7,3,2,1,0,4,4,5,0,4,1,3,3,1,1,2,2,1,1,1,2,2,1,2,N,N,N,N,N,NA,NA,NA,NA,NA,4,5,5,3,4,4,2,4,4,5,3,4,4,2,2,2,3,2,3,3,2,3,4,1,3,2,1,2,4,2,3,1,1,1,4,3,4,2,4,3,3,2,1,1,1,2,2,2,2,2,3,4,2,2,4,2,3,2,3,6,2,2,2,2,2,4,2,5,2,2,3,4,2,5,3,2,3,2,5,6,6,3,2,4,4,4,4,4,5,3,4,4,3,2,5,6,5,2,4,1,2,2,2,2,2,2,2,2,3,2,2,2,2,3,3,3,4,4,2,3,2,2,2,5,4,4,1,2,2,3,3,4,2,2,2,2,2,2,3,4,2,1,3,4,4,3,4,4,4,3,4,4,2,2,2,3,2,3,4,3,2,2,4,4,3,2,4,3,4,2,2,4,3,2,3,4,3,3,2
Oxford,1994,2,1,2,7,1.7272,90,3,2,1,0,2,NA,1,2,36.6,36.9,36.75,51.75,-1.25,88,-2.222222222,08:43:41,5,1,2,1,NA,4,4,5,NA,3,3,6,5,1,NA,2,8,1,NA,NA,1,2,8,1,NA,NA,NA,NA,NA,NA,NA,NA,NA,NA,2,1,3,3,2,2,2,3,3,3,4,2,3,3,4,3,2,2,2,2,3,2,2,3,3,2,4,3,3,2,2,1,3,4,2,4,4,4,4,3,4,1,2,1,3,2,4,3,5,5,6,5,6,3,5,5,3,5,5,3,4,4,3,6,2,3,3,4,3,3,3,4,5,5,3,3,2,3,5,3,5,4,4,5,5,5,5,5,5,5,5,5,5,4,4,5,4,5,4,4,4,1,4,4,3,3,4,2,3,3,2,3,2,5,2,4,5,4,2,2,3,4,2,5,4,4,4,3,2,2,3,5,5,2,4,5,3,4,3,4,2,3,4,4,3,4,3,3,3,3,3,2,3,1,3,3,5,4,5,2,4,2,4,4,3,3,2,4,3,2,2,4,3,3,3,3,2,2,3
Tsinghua,1994,1,1,1,7,1.68,68,2,2,5,2,1,10,1,2,36.8,36.7,36.75,30.58009338,114.273407,65,16,10:40:56,7,3,1,1,0,4,4,5,0,2,3,2,5,1,3,2,5,1,1,3,5,1,4,1,NA,NA,NA,NA,NA,NA,NA,NA,NA,NA,3,4,4,4,2,3,4,2,4,2,2,2,4,2,4,4,2,3,4,4,4,4,1,3,4,4,3,3,2,2,2,4,5,3,1,4,1,2,2,5,3,1,3,4,3,5,2,3,5,5,2,7,3,1,6,2,6,6,3,3,4,2,6,4,5,4,2,5,4,5,4,3,1,4,5,4,2,6,6,6,3,5,4,3,2,3,4,3,2,4,1,4,7,1,5,3,5,4,1,4,1,4,4,2,3,4,4,3,1,3,2,1,2,2,2,2,1,4,6,5,3,3,1,5,5,4,1,2,2,3,3,4,2,1,3,3,3,3,3,3,3,3,3,4,2,2,4,2,4,2,4,2,1,5,4,2,3,4,3,4,2,1,4,2,2,3,2,4,3,2,3,2,3,3,2,4,5,3,2
Tsinghua,1994,2,1,2,7,1.55,51,2,2,1,1,2,0,1,2,36.7,36.8,36.75,30.58009338,114.273407,71,16,10:50:40,7,3,2,1,0,4,2,5,0,5,1,8,8,1,1,2,5,2,1,1,3,2,1,2,õÌÈ­µÀfþ,NA,NA,NA,NA,6,NA,NA,NA,NA,2,1,3,3,4,4,2,2,3,2,3,2,2,3,3,4,3,3,3,3,4,3,3,4,4,3,3,3,4,2,4,3,2,3,2,4,4,4,3,4,2,2,2,2,2,4,4,5,5,5,6,6,5,4,3,5,5,5,5,5,4,5,6,5,4,4,2,5,3,4,3,5,3,3,2,2,5,2,5,3,4,2,4,2,2,2,4,3,3,4,3,4,5,3,3,6,7,5,6,2,4,2,4,3,4,4,2,4,4,3,3,4,2,2,2,4,5,4,2,3,3,3,3,3,4,4,2,3,2,2,2,4,2,2,4,4,3,2,4,3,4,2,4,4,4,3,4,4,3,2,4,3,2,3,2,3,4,4,2,3,3,4,4,2,4,4,3,4,3,4,3,2,2,3,4,2,4,4,4
Tsinghua,1994,1,1,1,7,1.81,75,3,2,13,0,2,0,1,2,36.8,36.7,36.75,30.58009338,114.273407,86,19,11:30:15,7,3,2,1,0,4,2,5,0,4,1,4,3,1,1,2,8,1,1,1,1,2,1,2,NA,NA,NA,NA,NA,NA,NA,NA,NA,NA,2,5,2,2,3,4,1,1,1,2,2,2,2,4,4,4,4,4,2,3,4,2,4,3,5,4,4,3,3,2,4,4,2,2,4,4,5,4,4,4,3,2,2,1,2,2,2,5,5,4,5,4,4,4,5,5,3,5,5,3,3,3,3,6,3,6,3,5,4,4,5,5,3,4,2,3,2,3,4,3,6,3,4,3,3,2,2,2,2,3,2,3,2,2,4,1,1,1,1,2,3,1,2,2,2,3,2,2,2,1,3,2,1,2,2,4,4,4,2,2,3,3,2,4,4,4,2,4,2,3,4,4,4,2,5,4,2,3,4,4,2,3,5,4,3,3,2,4,2,4,4,4,2,3,2,4,3,4,2,4,1,4,4,4,3,2,3,4,4,2,2,3,4,3,2,3,2,5,2
Tsinghua,1994,1,1,2,1,1.8,71,4,2,1,0,1,9,1,2,36.4,37.1,36.75,30.58009338,114.273407,87,17,11:00:51,7,3,2,1,0,4,4,5,0,6,3,5,1,1,1,2,1,2,1,1,1,1,2,2,na,na,na,na,na,0,0,0,0,0,4,2,3,2,2,4,3,3,3,2,4,3,2,4,3,3,3,2,3,2,3,3,3,4,4,2,4,4,4,1,2,4,2,5,5,5,4,4,2,1,2,3,4,4,4,3,4,3,5,4,4,4,2,2,4,5,4,4,2,2,3,4,6,4,4,3,2,5,5,4,6,4,3,3,4,3,5,4,7,4,4,2,2,2,4,3,3,3,3,4,2,2,7,2,2,4,4,3,4,1,4,2,4,4,3,3,3,2,3,4,2,3,3,3,4,2,3,4,5,4,5,3,2,2,4,3,4,3,4,4,3,2,4,2,4,2,4,2,4,2,4,2,4,2,4,4,3,2,4,4,4,2,4,3,3,4,3,3,3,4,3,4,3,3,3,4,5,1,4,4,4,3,4,4,1,4,5,3,1
Tsinghua,1994,2,1,1,7,1.58,48,2,2,3,0,2,0,1,2,36.8,36.7,36.75,30.58009338,114.273407,71,14,11:35:22,7,3,2,1,0,4,4,5,0,1,0,3,3,1,1,2,8,1,1,8,1,2,1,1,ÇàÄê´«Ã½ÖÐÐÄ,NA,NA,NA,NA,NA,NA,NA,NA,NA,3,3,3,4,4,3,2,3,2,2,3,2,4,4,2,4,3,1,2,3,1,2,3,2,4,3,4,4,4,3,4,4,3,4,4,4,4,4,4,4,3,4,3,3,4,4,4,5,2,2,2,4,2,2,2,2,4,3,2,4,2,2,2,2,2,2,2,2,2,2,2,2,2,2,4,2,5,2,5,3,3,2,4,3,3,3,4,4,3,4,3,4,3,2,2,6,6,6,6,3,2,2,2,2,4,2,2,2,4,2,2,3,2,2,2,2,2,4,3,3,3,3,2,2,4,4,2,4,2,2,2,4,3,4,3,4,3,3,3,4,3,3,3,3,4,3,3,4,3,3,4,3,2,2,2,4,3,4,2,2,2,3,3,3,3,3,2,4,4,3,3,2,2,2,2,3,4,3,3
Poland,1994,2,1,1,7,1.74,61,3,2,62,2,1,8,1,2,36.7,36.8,36.75,52.16670227,22.30000305,55,-3,11:22:17,9,1,2,1,NA,4,4,2,2,4,3,4,3,1,NA,2,8,2,1,1,1,1,NA,1,NA,NA,NA,NA,NA,NA,NA,NA,NA,NA,2,1,1,3,3,5,1,1,1,3,5,2,5,2,3,3,4,4,4,4,3,4,3,3,5,5,2,5,5,4,5,3,2,5,4,4,4,4,4,2,4,2,4,3,2,3,4,4,5,5,2,7,5,4,2,4,2,3,6,4,2,2,7,5,5,5,2,6,1,3,2,2,2,2,3,1,4,4,3,6,7,1,5,5,3,3,4,3,4,3,4,4,3,3,1,3,1,3,2,1,2,3,1,2,2,2,1,2,1,2,2,2,3,3,2,4,4,2,2,2,1,2,4,4,4,4,1,3,2,3,3,5,3,2,3,2,2,3,5,4,2,4,3,1,5,5,3,4,3,4,4,3,1,4,2,2,3,5,2,2,1,3,4,5,2,2,1,2,3,4,3,5,3,5,5,4,3,2,5
Kassel,1994,2,1,1,7,1.7,56,5,2,4,0,2,NA,1,2,36.87,36.72,36.795,51.335495,9.49130249,73,-4,10:07:47,1,1,2,1,NA,4,4,5,NA,4,2,7,6,1,NA,2,8,3,1,7,4,1,NA,2,Sportverein Kampfsport,-,-,-,-,4,NA,NA,NA,NA,4,4,5,5,5,5,2,4,4,4,5,4,4,2,3,3,2,2,2,2,2,3,2,4,5,1,2,1,3,2,4,1,2,1,1,3,2,3,2,2,1,1,2,1,1,1,2,3,2,2,2,4,2,2,2,2,3,5,1,2,2,5,2,2,1,2,3,6,2,2,2,2,3,2,2,2,2,2,2,7,7,2,4,5,5,4,4,5,4,3,5,4,5,3,6,6,3,2,3,2,2,1,2,2,2,2,1,1,1,2,4,1,1,2,1,4,6,5,5,4,5,5,1,3,1,5,4,5,1,2,5,2,2,1,1,2,4,1,4,2,4,5,3,4,5,5,3,4,4,4,4,4,2,1,3,3,2,4,5,2,2,3,4,4,2,2,1,4,4,4,3,3,1,5,4,4,4,5,2
Poland,1994,2,1,1,6,1.63,54,4,1,29,0,1,10,1,2,36.7,36.9,36.8,NA,NA,78,8,15:31:12,9,1,2,1,NA,3,3,5,1,3,3,5,7,1,NA,2,6,3,1,8,1,1,NA,1,NA,NA,NA,NA,NA,NA,NA,NA,NA,NA,5,3,4,2,5,5,4,4,4,3,5,5,2,2,3,3,4,4,4,4,2,3,4,4,4,4,2,4,1,1,1,3,3,1,1,3,2,2,2,2,2,1,1,1,1,2,2,2,2,1,2,1,5,2,1,2,2,6,1,2,1,2,6,2,1,5,4,6,2,5,2,5,4,4,2,2,5,4,5,6,6,6,4,3,3,4,3,2,2,2,2,3,3,2,2,1,2,2,2,1,1,2,2,2,2,2,2,2,2,4,3,1,1,3,2,5,5,4,2,2,4,3,5,3,1,5,4,5,3,2,2,4,2,1,2,3,4,1,4,5,1,3,4,4,4,4,3,2,2,3,3,2,2,2,3,2,4,3,2,4,2,2,2,5,1,2,2,2,4,4,2,4,4,2,3,4,2,2,1
METU,1994,2,1,1,5,1.78,75,3,2,12,0,1,10,1,2,36.7,36.9,36.8,39.91169739,32.84030151,64,6,11:02:51,3,2,4,1,NA,4,4,4,1,2,2,4,3,1,NA,2,8,1,NA,NA,1,1,NA,2,e?lence gruplar?,NA,NA,NA,NA,6,NA,NA,NA,NA,3,4,5,4,3,2,3,3,2,2,3,2,3,3,4,3,2,3,2,3,3,2,3,4,4,3,2,2,3,3,3,2,3,2,1,4,4,4,1,4,2,1,1,2,2,1,1,3,2,2,2,5,2,2,2,2,2,5,1,2,2,1,3,1,1,1,3,3,2,2,2,2,2,2,3,4,3,2,3,2,3,2,2,5,2,5,4,2,4,2,2,4,3,5,5,5,4,3,4,2,5,3,3,2,4,5,4,2,4,4,1,2,2,2,2,5,4,6,2,4,2,1,2,2,4,4,1,4,4,3,2,5,3,1,2,3,4,3,3,4,4,3,5,4,3,4,4,5,3,3,4,3,2,2,3,4,4,4,5,3,1,2,2,4,3,1,2,4,4,2,3,5,2,5,4,4,4,2,1
Tsinghua,1994,2,1,1,7,1.6,53,2,2,1.5,0.5,2,0,1,2,36.8,36.8,36.8,30.58009338,114.273407,64,12,09:26:08,7,3,1,1,0,4,4,5,0,3,3,3,2,1,1,2,8,1,1,1,1,2,1,1,NA,NA,NA,NA,NA,NA,NA,NA,NA,NA,3,3,2,4,4,4,2,2,2,3,4,3,2,4,3,3,3,3,3,3,4,3,3,3,4,2,3,2,2,2,2,2,3,3,3,4,2,2,2,2,2,2,2,2,2,2,2,3,2,2,3,5,3,2,4,2,3,3,3,5,2,2,3,3,2,3,3,4,3,3,3,2,3,3,3,3,3,3,2,3,4,4,3,4,4,4,4,4,3,4,4,4,3,2,4,5,5,4,4,2,3,2,2,3,3,2,3,4,3,2,2,4,2,2,2,2,3,4,2,3,2,3,2,4,5,3,1,3,4,4,3,5,2,1,4,4,3,3,2,4,3,4,4,4,4,3,4,3,3,3,4,3,4,3,4,3,2,2,4,3,2,4,3,2,4,4,2,4,4,3,3,4,4,4,3,4,3,1,4
Oxford,1994,2,1,2,6,1.6002,65,4,2,0,0,2,NA,1,2,36.8,36.8,36.8,51.75,-1.25,86,0,08:22:30,5,1,2,1,NA,4,4,5,NA,4,4,4,4,1,NA,2,8,1,NA,NA,3,2,3,1,NA,NA,NA,NA,NA,NA,NA,NA,NA,NA,4,4,3,4,3,4,4,3,4,4,3,3,3,4,3,3,2,2,2,3,3,2,3,3,4,2,3,4,4,2,2,4,2,4,4,2,4,4,4,4,2,1,1,2,4,1,4,5,5,3,5,4,5,3,5,5,3,5,3,3,4,5,3,5,3,5,3,3,3,4,3,3,3,3,5,4,5,4,3,3,4,5,3,4,4,4,4,4,2,2,4,3,4,5,3,2,4,4,4,4,4,1,4,4,1,4,4,3,1,2,2,2,3,4,4,2,2,3,2,1,2,2,4,2,4,4,2,2,2,2,4,4,2,4,3,2,2,3,3,2,2,4,4,3,4,3,4,3,4,3,3,4,3,3,3,4,4,4,4,3,2,3,4,4,4,3,4,3,4,3,3,4,2,4,3,4,3,2,4
Zurich,1994,2,1,1,7,1.77,120,2,2,0,1,2,NA,1,2,36.5,37.1,36.8,NA,NA,65,3,21:02:23,1,1,2,1,NA,4,2,4,1,3,1,4,3,1,NA,2,6,3,8,1,5,1,NA,1,NA,NA,NA,NA,NA,NA,NA,NA,NA,NA,2,1,2,3,1,2,2,2,2,4,3,1,3,3,4,4,3,4,2,3,3,3,3,4,3,2,2,3,4,2,4,3,2,4,3,4,2,3,2,4,3,2,3,4,2,2,2,5,4,3,4,4,4,5,6,4,2,3,2,5,5,5,2,5,2,3,2,3,1,2,2,4,2,5,2,2,2,2,2,3,2,1,2,4,2,4,3,3,4,2,4,4,4,6,5,6,5,4,4,2,2,1,2,2,1,3,2,2,1,2,1,2,1,3,1,5,8,6,3,6,5,5,4,5,3,4,2,2,5,2,2,4,5,1,4,3,3,3,4,3,2,2,4,5,2,5,3,4,2,2,4,3,2,2,3,4,4,4,3,3,2,4,4,2,4,3,2,3,4,2,4,4,4,4,3,3,3,1,3
Kassel,1994,2,1,1,7,1.75,70,2,2,12,1,2,NA,1,2,36.9,36.7,36.8,51.45089722,7.238800049,75,-3,09:39:57,1,1,2,1,NA,4,4,4,2,2,4,6,8,2,1,2,8,1,NA,NA,1,1,NA,2,Sportverein,/,/,/,/,5,0,0,0,0,4,2,5,3,4,2,3,4,4,4,5,1,5,4,4,5,3,3,4,3,2,4,2,4,4,1,2,4,5,2,4,4,1,4,1,4,4,5,4,5,5,4,4,4,3,2,5,7,7,6,5,7,7,5,3,6,6,1,4,5,5,2,7,2,5,1,2,4,3,2,1,3,3,3,2,3,2,3,1,5,6,4,3,4,4,4,5,4,4,2,4,4,4,1,3,3,3,4,4,2,2,1,2,3,2,4,3,1,3,4,1,1,3,3,1,5,4,4,4,4,5,1,1,1,2,5,3,5,4,2,2,2,2,1,1,3,4,1,4,3,2,3,4,5,4,4,4,3,3,4,2,2,2,2,2,1,3,4,3,1,1,4,4,2,3,1,1,4,4,4,3,2,2,2,4,3,4,1,3
Oslo,1994,2,1,1,7,1.73,63,3,2,1,0,2,NA,1,2,36.6,37,36.8,59.91270447,10.74609375,96,-6,10:45:30,4,1,2,1,NA,4,4,4,1,5,5,8,6,1,NA,2,8,3,1,3,1,1,NA,1,NA,NA,NA,NA,NA,NA,NA,NA,NA,NA,2,4,4,3,3,4,2,3,3,3,4,4,4,3,3,2,3,3,3,3,3,2,2,3,5,2,3,2,3,3,2,4,3,4,3,5,3,2,4,4,1,2,3,4,1,3,4,7,5,4,6,7,3,6,5,3,1,4,1,3,2,4,5,5,1,2,2,4,2,3,1,1,2,2,2,1,2,3,1,4,2,1,1,5,4,4,4,5,4,3,4,3,3,7,7,7,6,4,4,4,4,3,4,3,3,4,3,2,4,1,2,2,2,3,3,5,6,7,1,5,1,1,5,5,1,5,2,4,5,5,5,5,4,1,3,4,4,2,3,3,3,3,4,3,5,5,4,3,3,5,3,3,2,2,2,3,2,4,4,1,3,2,3,2,4,3,1,4,4,4,4,4,2,4,4,3,3,2,4
Tsinghua,1994,1,1,2,7,1.65,61,3,2,2,0,2,0,1,2,36.7,36.9,36.8,30.58009338,114.273407,74,16,10:57:30,7,3,2,1,0,4,4,5,0,8,1,8,5,1,1,2,5,1,1,1,2,2,1,2,NA,NA,NA,NA,NA,NA,NA,NA,NA,NA,2,2,2,2,4,3,1,2,1,2,2,2,1,4,4,4,4,3,4,3,3,3,4,3,3,3,4,3,4,1,4,4,4,3,4,3,3,2,2,3,2,2,2,2,2,2,2,6,7,5,6,6,6,6,6,4,5,4,2,4,5,6,6,7,4,6,1,2,3,2,1,2,2,2,1,3,1,2,3,2,3,1,4,5,5,4,5,5,5,5,4,4,5,3,4,7,6,6,5,3,4,2,4,2,3,3,4,3,2,3,4,4,2,4,2,4,2,4,2,2,2,2,3,4,4,4,2,3,4,3,4,4,2,1,2,3,4,2,2,3,2,2,2,4,2,3,2,3,4,3,4,4,4,2,2,2,2,3,3,2,3,4,4,2,3,2,2,4,2,4,3,2,2,2,4,2,2,2,4
VCU,1994,2,1,2,1,1.7272,54.54545455,4,2,1,0,2,NA,1,2,36.66666667,36.94444444,36.80555556,37.55220032,-77.45819855,81,14.44444444,22:31:47,5,1,2,1,NA,4,2,5,NA,7,3,6,3,1,NA,2,8,3,1,5,3,2,1,2,Health Science Club,NA,NA,NA,NA,3,NA,NA,NA,NA,3,2,4,3,2,3,2,2,2,3,4,2,2,2,3,3,3,3,3,2,2,2,2,2,3,2,2,4,4,4,4,4,4,4,5,4,4,3,4,3,3,2,1,2,3,4,3,5,5,5,5,5,5,7,3,6,4,3,4,3,2,2,5,5,2,3,6,2,3,2,3,2,2,5,2,3,4,4,2,3,2,2,4,5,5,5,5,5,5,5,5,5,4,5,4,4,5,5,5,4,3,1,3,2,1,1,4,1,4,2,3,4,2,3,2,4,3,6,3,4,4,4,1,2,1,5,5,5,5,3,5,2,1,2,1,2,5,2,5,3,3,4,4,1,4,5,4,5,5,5,5,5,2,4,2,4,5,4,4,2,2,3,3,2,2,2,2,2,4,3,2,3,2,4,1,3,2,4,4
UCSB,1994,1,1,2,6,1.7,65,5,1,4,0,2,NA,1,2,36.77777778,36.88888889,36.83333333,34.4329071,-119.8370972,82,12.22222222,11:38:00,5,1,2,1,NA,4,4,5,NA,8,3,5,3,1,NA,2,8,1,NA,NA,1,1,NA,2,choir,photography club,NA,NA,NA,2,5,NA,NA,NA,4,5,4,5,3,4,4,3,2,5,4,4,5,2,3,2,4,2,2,2,2,1,2,3,4,2,2,4,4,4,4,4,3,4,4,5,5,5,5,3,4,4,4,4,4,3,4,2,2,2,4,4,2,4,3,2,2,2,4,6,2,3,3,1,2,4,2,4,2,3,2,2,2,2,2,3,5,2,3,3,4,2,4,5,5,5,5,5,4,4,4,4,4,6,6,6,5,5,5,3,2,1,3,2,3,2,3,2,2,2,2,2,2,3,1,2,2,4,2,3,2,2,2,4,4,4,2,4,4,5,4,5,2,2,3,4,2,2,2,3,3,3,4,3,5,3,3,4,4,4,5,4,3,3,3,4,3,4,2,4,2,2,3,4,3,3,2,5,4,4,4,5,2,5,3,5,4,3,3
SMU,1994,2,1,2,6,1.7,53,2,1,0,0,2,NA,1,2,36.88888889,36.77777778,36.83333333,1.293106079,103.8558044,70,26,09:48:01,5,1,2,1,NA,4,4,5,NA,8,3,4,2,2,1,2,8,1,NA,NA,1,1,NA,2,ASMU,NA,NA,NA,NA,7,NA,NA,NA,NA,3,4,2,1,3,4,1,3,2,4,4,1,3,4,3,4,2,3,4,1,4,3,3,4,5,2,5,4,5,3,5,5,3,5,3,4,3,4,3,4,3,3,4,3,3,4,5,4,6,4,5,6,6,5,5,5,4,6,5,3,3,7,5,6,3,6,5,2,4,5,4,3,4,3,3,3,3,3,5,2,3,5,5,4,3,4,5,5,5,5,5,5,6,7,6,6,6,5,5,1,4,2,4,4,3,4,5,4,4,4,3,4,2,4,4,2,2,2,2,2,2,3,1,5,4,2,1,4,3,1,4,5,4,2,4,4,4,3,5,4,2,2,5,5,2,4,4,4,2,1,2,2,2,4,3,3,2,2,2,4,4,3,3,4,2,5,3,4,5,2,2,5,2,3,4,4,2,1,5
Oslo,1994,2,3,2,6,1.7,58,3,2,6,1,2,NA,1,2,36.8,36.9,36.85,59.91270447,10.74609375,90,-1,10:36:31,4,1,2,1,NA,4,4,5,NA,8,5,8,5,1,NA,2,8,3,1,5,3,1,NA,1,NA,NA,NA,NA,NA,NA,NA,NA,NA,NA,2,4,5,5,4,4,2,3,3,4,4,4,3,2,2,2,2,2,2,2,2,2,2,2,3,2,2,2,2,1,3,2,2,2,2,4,4,2,3,3,2,2,2,2,2,2,2,4,4,4,4,4,4,4,4,4,4,4,4,4,2,4,4,3,4,4,4,5,4,4,4,4,4,4,4,4,4,4,4,4,4,4,4,4,4,4,4,4,4,3,4,4,3,4,4,4,4,3,2,1,1,1,2,1,1,1,1,1,1,1,3,3,2,4,2,3,5,4,1,3,4,2,4,4,3,4,2,2,3,2,4,4,4,2,3,4,3,3,3,4,3,2,3,4,4,3,4,3,3,4,3,4,3,3,3,2,4,3,3,3,2,4,2,2,3,2,2,4,4,2,2,4,2,4,4,3,3,3,3
SMU,1994,2,1,2,7,1.71,53,3,2,0,0,2,NA,1,2,36.9,36.8,36.85,1.293106079,103.8558044,70,27,09:30:04,5,1,2,1,NA,4,4,5,NA,2,1,3,3,1,NA,2,5,1,NA,NA,1,1,NA,1,NA,NA,NA,NA,NA,NA,NA,NA,NA,NA,4,4,3,4,3,5,2,2,3,3,3,4,4,3,4,3,3,3,2,3,3,3,3,3,5,3,3,2,4,1,4,4,2,2,2,1,5,2,5,4,2,2,2,2,4,2,2,4,2,2,4,3,2,4,4,3,2,5,4,4,2,2,2,4,2,3,4,4,4,4,2,4,5,5,3,4,4,3,5,3,6,3,3,4,4,4,4,4,5,5,5,5,5,4,4,4,4,4,4,2,3,2,3,3,2,2,3,4,2,2,2,2,2,3,2,5,6,7,6,6,1,1,2,2,4,4,3,2,5,5,5,4,4,2,4,3,3,4,4,2,1,2,4,3,3,4,3,4,4,3,3,3,3,3,3,4,2,4,4,3,4,3,3,2,2,2,3,5,5,1,1,2,4,4,3,5,2,1,5
VCU,1994,2,1,1,5,1.651,63.63636364,4,2,0,0,2,NA,1,2,36.9,36.8,36.85,37.55769348,-77.37689972,80,15,13:37:50,5,1,1,1,NA,4,4,4,2,2,2,3,3,2,1,2,8,3,8,6,3,1,NA,1,NA,NA,NA,NA,NA,NA,NA,NA,NA,NA,4,3,4,5,4,3,3,3,4,2,4,5,5,3,2,2,3,2,2,3,2,3,3,2,4,3,2,3,4,2,3,2,1,4,1,4,3,4,3,3,2,2,2,4,3,4,2,6,2,1,1,4,2,1,5,4,2,2,5,1,2,3,1,4,1,1,2,3,2,1,2,1,2,2,2,2,2,2,2,1,3,1,2,4,4,4,5,5,3,2,1,2,4,5,5,4,3,4,4,2,2,2,2,2,2,2,2,2,3,1,3,1,1,3,1,4,4,5,4,4,4,1,2,2,1,5,4,5,3,2,5,3,4,1,2,4,4,1,2,4,2,2,4,4,3,4,3,4,4,2,2,2,4,4,3,4,5,5,5,3,1,3,2,4,3,2,1,2,4,2,1,4,2,4,2,4,4,2,2
METU,1994,2,1,1,6,1.75,71,4,2,NA,NA,2,NA,1,2,36.8,36.9,36.85,39.91169739,32.84030151,70,3,10:51:30,3,2,2,1,NA,4,4,4,2,5,3,3,3,1,NA,2,5,1,NA,NA,1,1,NA,1,NA,NA,NA,NA,NA,NA,NA,NA,NA,NA,4,4,3,5,3,4,2,2,2,3,4,4,4,2,4,3,2,2,2,2,3,2,2,4,3,3,2,4,3,3,2,4,3,4,2,3,5,5,5,5,5,2,2,3,4,3,4,6,5,3,5,7,5,6,5,5,5,5,4,2,2,2,6,6,2,3,2,6,4,2,4,5,4,4,1,1,2,1,3,5,5,1,2,5,5,5,5,5,5,5,5,5,6,7,7,7,7,7,7,2,2,3,2,2,2,2,3,2,2,2,2,2,2,3,2,5,6,6,3,6,3,4,2,2,4,4,2,4,4,3,3,4,4,1,3,4,4,3,2,4,4,4,4,4,4,5,5,5,5,4,5,5,2,2,2,2,4,4,4,2,3,3,4,4,4,5,3,4,4,4,5,5,2,5,5,4,4,2,3
Poland,1994,2,1,2,5,1.75,61,2,1,4,0,1,1,1,2,37.1,36.6,36.85,52.25,21,48,8,10:48:12,9,1,2,1,NA,3,3,5,1,4,5,4,3,1,NA,2,8,2,2,1,3,1,NA,1,NA,NA,NA,NA,NA,NA,NA,NA,NA,NA,3,4,3,3,2,2,2,3,4,2,5,4,4,4,5,5,5,3,3,3,4,3,4,5,5,5,3,2,4,4,4,4,4,4,1,4,4,4,4,4,4,2,2,1,1,1,4,3,3,5,5,2,2,2,3,6,3,3,5,5,4,5,2,5,4,4,4,6,5,4,2,5,5,2,3,3,6,2,3,4,5,6,4,5,5,5,5,4,5,5,5,5,5,3,4,3,3,2,4,1,2,4,2,4,2,4,3,2,3,1,2,3,2,2,4,5,8,3,6,4,3,4,1,3,4,4,1,5,1,2,4,4,4,2,3,4,4,4,5,5,4,4,4,3,4,4,3,4,4,3,4,4,4,4,2,2,5,5,3,1,1,4,2,4,3,1,1,4,4,4,3,4,2,5,5,5,5,4,5
Tsinghua,1994,1,2,2,7,1.77,65,3,2,0,0,1,1,1,2,36.9,36.8,36.85,30.58009338,114.273407,87,17,10:11:26,7,3,2,1,0,4,1,5,0,7,1,2,2,1,1,2,8,1,1,1,1,2,1,1,¼ÇÕßÍÅ,Çà´«,NA,NA,NA,4,2,0,0,0,4,4,2,2,4,4,1,3,2,4,5,3,2,1,2,1,2,2,2,2,2,2,2,1,4,2,1,4,3,2,3,4,2,4,5,5,4,2,2,2,3,2,2,2,2,2,2,5,1,2,2,5,5,1,2,2,1,1,1,3,1,1,5,3,3,4,2,5,2,1,5,5,1,2,2,1,5,2,3,1,5,5,1,4,4,5,4,5,4,2,3,4,1,1,5,3,3,2,2,2,2,1,2,3,2,1,2,4,2,1,2,1,1,4,1,3,2,4,1,2,2,2,1,5,4,4,1,5,1,4,5,5,2,1,2,2,2,1,4,3,1,3,4,5,3,5,3,3,4,5,5,5,2,1,2,4,3,4,4,4,2,5,5,5,5,1,1,5,5,2,1,4,2,4,4,4,5,2,1
Oxford,1994,2,2,1,7,1.6764,55,2,1,0,4,1,20,2,2,36.8,37,36.9,51.75,-1.25,86,0,07:54:56,5,1,2,1,NA,4,2,5,NA,4,4,8,4,1,NA,2,5,3,1,5,1,1,NA,1,NA,NA,NA,NA,NA,NA,NA,NA,NA,NA,4,3,3,1,1,5,1,2,4,4,4,3,2,3,4,5,2,3,4,3,5,3,4,3,5,4,4,1,4,2,4,1,1,4,2,4,2,2,2,2,2,1,1,2,2,2,2,2,3,2,2,2,2,2,2,6,2,4,2,2,3,6,2,7,2,7,6,6,5,6,7,7,2,3,5,4,5,3,6,5,6,2,4,1,1,1,2,1,1,1,1,4,7,1,1,7,7,7,2,2,2,3,2,2,2,2,2,3,5,2,3,5,2,2,2,3,4,3,2,1,2,3,1,2,4,4,5,1,5,2,2,2,4,2,5,2,2,1,2,1,4,4,5,5,2,4,4,4,1,3,2,1,4,5,4,2,1,5,1,5,5,2,5,5,2,2,4,3,4,4,2,2,5,2,2,2,3,1,4
Kassel,1994,2,1,1,7,1.76,53,3,2,0,0,2,NA,1,2,36.8,37,36.9,50.01759338,8.70489502,60,-2,09:37:36,1,1,2,1,NA,4,2,4,1,2,2,4,3,2,1,2,8,3,1,3,1,2,1,1,NA,NA,NA,NA,NA,NA,NA,NA,NA,NA,4,4,4,3,2,3,4,4,3,3,4,3,3,4,3,4,3,3,3,3,3,3,3,3,4,2,3,2,4,2,4,4,2,3,2,4,4,3,4,4,2,2,2,2,2,2,2,5,6,6,7,7,5,2,5,6,5,2,6,2,5,4,6,3,1,3,2,5,2,2,2,1,3,3,3,2,2,3,1,4,1,3,4,4,3,4,4,3,2,3,3,2,4,3,3,3,2,2,2,4,4,1,4,2,2,4,4,2,3,2,2,2,2,3,2,5,6,6,5,5,2,2,2,4,2,5,2,3,2,2,4,4,3,1,2,4,4,1,3,3,3,4,3,4,3,5,4,4,3,2,3,3,2,2,2,2,4,2,3,2,1,3,3,4,2,2,3,3,4,4,4,3,2,3,4,2,3,4,2
VCU,1994,2,1,2,7,1.5494,59.09090909,4,2,0,0,2,NA,1,2,36.87777778,36.96111111,36.91944444,37.55380249,-77.46029663,91,14.44444444,10:57:04,5,1,2,1,NA,4,4,5,NA,3,2,3,3,2,1,2,1,3,1,3,1,2,1,1,NA,NA,NA,NA,NA,NA,NA,NA,NA,NA,4,4,4,5,5,2,4,3,4,5,5,4,5,3,3,3,2,2,2,3,3,3,2,3,3,1,3,1,3,2,1,1,1,3,3,1,4,1,4,2,4,1,1,1,1,1,3,4,4,4,4,4,4,4,4,4,4,4,4,4,4,4,4,4,4,4,4,4,4,4,4,4,4,4,4,4,4,4,4,4,4,4,4,4,3,5,5,5,4,3,4,3,2,4,5,4,5,4,5,2,4,1,5,2,2,3,4,4,2,2,2,3,3,3,2,4,6,4,5,5,1,1,3,3,4,3,1,4,3,3,4,4,3,2,1,4,4,3,4,3,3,2,4,4,4,4,4,3,3,3,3,3,3,3,3,4,4,4,3,3,2,4,4,2,4,4,2,3,4,3,3,3,2,4,4,3,3,2,4
UCSB,1994,1,1,2,4,1.9812,104.5454545,4,1,8,0,2,NA,1,2,36.94444444,36.94444444,36.94444444,34.4329071,-119.8370972,83,13.33333333,11:21:00,5,1,2,1,NA,4,4,3,1,3,1,8,7,1,NA,2,5,1,NA,NA,2,1,NA,1,NA,NA,NA,NA,NA,NA,NA,NA,NA,NA,4,5,5,2,3,3,4,4,4,4,5,4,2,3,2,3,2,3,2,1,2,4,2,2,3,5,2,2,3,2,2,3,2,4,3,3,3,2,4,1,4,3,4,2,4,2,2,2,5,4,3,3,4,4,4,3,5,5,4,3,4,3,2,3,4,3,5,3,3,5,4,4,4,6,3,3,3,3,5,3,3,5,3,4,4,4,3,4,3,4,4,4,5,4,3,4,5,4,3,2,2,2,1,2,2,3,1,1,2,2,4,2,2,3,4,5,7,6,7,3,3,4,2,4,4,3,1,1,4,4,2,5,5,5,5,5,2,2,2,4,5,5,3,2,4,5,5,5,5,5,4,4,3,2,3,2,4,3,4,2,3,3,3,3,2,4,4,4,2,2,2,4,2,3,3,2,4,3,3
SMU,1994,2,1,1,7,1.66,72,4,2,0,0,1,3,1,2,36.83333333,37.05555556,36.94444444,1.293106079,103.8558044,71,26,10:39:31,5,1,2,1,NA,4,4,5,NA,8,6,6,6,1,NA,2,8,1,NA,NA,1,1,NA,1,NA,NA,NA,NA,NA,NA,NA,NA,NA,NA,3,3,2,4,3,3,1,2,2,1,4,2,4,3,3,3,2,2,1,3,3,2,2,2,5,1,2,4,3,2,4,4,2,4,3,4,4,4,4,4,4,2,2,2,2,3,4,3,2,2,3,3,2,2,2,2,2,2,2,2,2,2,2,2,2,2,1,2,2,2,2,2,2,2,1,2,1,2,2,2,2,2,2,4,4,4,4,5,4,4,5,5,3,4,4,3,4,4,4,2,2,3,2,2,2,2,4,2,2,3,2,2,2,2,3,3,4,5,2,2,4,4,2,4,5,3,1,3,2,2,2,4,3,2,2,4,4,3,3,3,2,3,2,3,4,4,3,5,4,3,4,4,1,2,1,2,3,3,4,2,3,3,3,4,4,2,2,4,2,2,2,4,2,4,2,3,3,2,3
Tsinghua,1994,2,1,2,7,1.63,50,3,2,0,0,2,0,1,2,36.9,37,36.95,30.58009338,114.273407,65,16,11:02:33,7,3,2,1,0,4,4,5,0,8,2,8,2,1,1,2,1,3,8,2,1,2,1,2,NA,NA,NA,NA,NA,NA,NA,NA,NA,NA,4,2,3,4,3,4,1,4,2,3,5,2,4,3,2,2,2,2,1,1,3,2,2,3,4,2,2,2,2,2,4,3,3,2,4,4,4,4,4,4,2,2,4,2,2,1,4,6,2,2,2,6,2,5,5,3,1,1,2,6,2,1,4,6,2,2,2,5,2,2,2,2,2,1,2,2,3,2,2,1,5,2,2,5,5,5,5,5,5,4,5,5,4,2,3,5,5,5,5,2,2,2,1,3,2,4,2,2,2,2,2,2,1,4,1,3,3,3,2,2,2,3,2,3,4,4,1,1,1,1,1,4,1,1,4,4,2,2,1,4,2,2,4,4,4,2,2,4,5,3,4,5,3,1,3,3,4,4,4,4,2,4,3,4,3,2,5,4,4,2,3,4,4,5,4,4,3,2,4
Tsinghua,1994,2,1,2,7,1.61,48,3,2,0,0,2,0,1,2,37.1,36.8,36.95,30.58009338,114.273407,61,10,11:16:44,7,3,2,1,0,4,2,5,0,8,1,6,3,1,1,2,2,1,1,1,1,2,1,2,NA,NA,NA,NA,NA,NA,NA,NA,NA,NA,4,3,3,3,5,5,1,3,4,3,4,3,2,4,4,4,4,4,3,4,3,4,4,2,4,3,3,3,3,2,4,4,2,2,4,3,2,1,3,1,1,1,1,1,2,2,2,5,4,3,4,4,5,6,3,5,6,4,5,5,5,2,5,5,2,5,3,3,2,2,3,2,2,3,3,3,5,2,3,4,3,2,4,4,5,5,5,5,4,4,4,4,7,2,4,4,3,3,4,2,3,4,3,2,4,4,2,2,3,2,2,3,1,3,3,3,3,4,2,3,2,2,2,4,4,4,2,2,2,2,4,3,2,2,2,4,4,2,3,4,2,2,3,4,4,3,3,5,4,3,4,3,2,2,2,3,4,4,4,3,2,3,4,4,4,2,2,4,2,2,2,4,4,3,4,2,3,3,2
Tsinghua,1994,2,1,2,7,1.6,50,1,2,0,0,2,0,1,2,37.3,36.6,36.95,30.58009338,114.273407,82,17,11:08:02,7,3,2,1,0,4,3,5,0,1,0,5,5,1,1,2,3,1,1,1,6,2,1,2,°à¼¶,Ë«Ñ§Î»°à¼¶,NA,NA,NA,NA,NA,0,0,0,4,3,3,3,4,4,2,3,2,4,4,4,4,3,4,4,4,3,3,4,1,4,3,4,4,3,3,4,4,4,4,2,3,3,4,4,4,4,3,4,3,4,4,4,2,3,4,5,3,3,4,5,3,4,4,4,4,4,4,4,4,4,3,5,4,4,3,5,4,3,4,5,4,4,4,3,5,3,5,4,5,4,4,4,4,4,4,4,3,4,3,4,4,2,2,6,5,4,4,3,4,4,3,3,3,3,2,3,4,3,2,3,2,4,2,3,3,4,5,5,3,3,2,2,4,4,2,4,3,2,4,4,3,1,2,4,4,2,5,4,2,2,3,3,3,2,2,4,4,3,4,4,3,3,2,3,2,4,4,4,2,3,4,4,3,2,2,4,3,4,4,3,3,3,4,4,4,3,3
UCSB,1994,2,3,1,7,1.5494,54.54545455,3,1,2,0,2,NA,1,2,37.22222222,36.72222222,36.97222222,34.16479492,-118.4008026,71,11.11111111,NA,5,1,2,1,NA,4,4,5,NA,4,2,4,4,1,NA,2,1,3,1,8,1,1,NA,1,NA,NA,NA,NA,NA,NA,NA,NA,NA,NA,5,2,2,5,3,5,3,3,5,2,3,5,5,3,2,5,2,3,2,2,3,1,3,2,4,2,3,4,5,4,4,2,2,3,3,4,4,4,4,4,2,1,1,1,4,2,4,6,2,1,2,4,1,1,1,1,1,1,2,2,4,1,2,1,2,2,1,2,1,2,1,3,1,1,3,1,1,2,1,4,2,1,1,5,5,5,5,5,5,3,5,5,6,7,7,7,7,7,7,3,2,1,2,2,2,2,2,4,2,2,2,2,2,3,4,3,4,4,3,4,1,4,1,1,1,5,3,4,4,2,2,3,2,2,2,2,2,1,1,4,3,3,5,2,4,4,4,4,4,4,4,4,2,2,2,4,4,4,3,3,2,3,4,2,4,2,2,2,4,2,2,2,2,2,4,2,4,2,4
Tsinghua,1994,2,1,2,7,1.56,50,2,2,3,3,2,0,1,2,36.95,37,36.975,30.58009338,114.273407,74,16,10:38:36,7,3,2,1,0,4,1,5,0,4,1,6,1,1,1,2,2,2,1,3,1,2,1,2,ÀÏÊ¦,Í¬Ñ§,NA,NA,NA,1,2,NA,NA,NA,1,5,4,3,3,2,3,3,3,3,2,3,3,3,3,3,3,2,3,3,3,3,3,3,4,3,3,4,5,2,4,3,4,5,4,4,4,4,4,5,2,4,2,2,3,3,4,4,3,3,3,3,4,4,5,3,2,3,3,3,2,3,4,6,1,5,1,4,3,2,4,5,2,5,3,5,6,3,5,5,6,3,6,1,3,3,2,2,3,3,3,3,4,4,2,3,3,3,4,3,1,4,2,4,2,4,2,2,2,3,2,3,2,2,2,3,3,4,3,3,1,1,4,2,3,4,4,2,2,2,2,3,2,2,2,2,4,2,2,4,2,2,2,4,4,3,3,4,2,4,4,3,2,3,2,2,2,4,3,3,2,4,2,4,4,2,2,4,4,2,2,3,3,2,4,3,4,1,4
Bamberg,1994,2,1,1,6,1.67,58,3,2,1,0,2,NA,1,2,37,37,37,49.44030762,11.0809021,62,5,10:45:54,1,1,1,1,NA,4,2,4,1,4,3,4,3,1,NA,2,8,3,8,8,2,1,NA,1,NA,NA,NA,NA,NA,NA,NA,NA,NA,NA,4,3,2,4,4,4,1,1,2,4,3,3,3,2,3,3,3,2,2,3,3,2,3,3,4,3,2,1,1,1,1,1,1,1,1,1,3,1,1,1,1,1,1,1,1,1,1,1,1,1,4,1,3,1,4,1,2,7,2,2,2,1,4,1,1,1,1,2,2,1,1,1,2,7,1,1,1,1,1,3,2,1,3,4,4,4,4,4,4,4,4,4,6,5,5,3,5,5,5,1,2,1,3,4,1,3,2,1,1,3,3,3,2,2,2,3,3,5,2,2,4,2,4,4,1,5,5,5,1,1,4,2,1,1,1,3,5,1,4,3,2,3,1,2,4,5,5,5,3,3,3,2,1,2,2,2,2,2,1,2,3,1,2,1,1,3,1,3,3,3,3,3,5,3,4,4,3,5,2
Tsinghua,1994,2,1,2,7,1.65,48,4,2,0,0,2,0,1,2,36.8,37.2,37,30.66670227,104.0667114,86,16,11:57:26,7,3,2,1,0,4,2,5,0,3,3,3,3,1,1,2,3,3,1,1,1,2,1,2,NA,NA,NA,NA,NA,0,0,0,0,0,4,4,3,3,4,2,1,2,2,3,2,1,3,2,5,2,4,3,4,3,3,5,3,3,4,2,3,2,3,3,2,1,2,2,2,4,4,2,2,2,2,2,2,1,2,3,2,5,5,2,3,4,7,4,1,4,3,3,5,4,5,2,4,6,2,3,2,1,4,2,3,6,4,4,3,1,1,1,6,2,1,2,5,5,4,4,3,5,5,4,4,4,7,2,4,4,7,6,5,4,2,3,4,5,3,1,4,3,4,5,3,4,2,2,2,2,2,5,3,3,3,2,2,4,4,5,2,2,2,3,3,4,2,2,2,3,3,1,4,4,2,4,5,5,2,2,1,3,4,2,4,4,4,2,2,2,5,4,3,2,2,3,4,4,4,2,3,4,3,2,2,2,2,3,3,3,4,2,4
Serbia,1994,2,1,1,6,1.68,63,4,2,2,0,1,15,1,2,37.1,36.9,37,44.81860352,20.46809387,50,8,12:00:58,6,1,2,1,NA,4,4,4,1,5,8,6,8,1,NA,2,8,1,NA,NA,3,2,3,2,Nurdor,NA,NA,NA,NA,2,NA,NA,NA,NA,4,3,4,4,4,4,3,2,4,4,2,3,4,3,3,4,3,2,2,2,3,2,2,4,4,2,3,1,4,2,3,2,2,3,1,3,3,3,4,2,2,1,2,2,2,3,4,5,3,3,2,5,3,5,5,5,2,4,2,3,2,2,2,5,2,4,NA,8,NA,3,2,3,3,NA,NA,NA,3,NA,4,6,3,NA,3,5,5,5,5,5,5,3,4,4,5,5,5,5,5,5,6,3,2,2,2,2,2,2,2,2,2,2,2,3,2,2,3,3,5,5,2,3,6,1,2,2,2,4,3,4,4,4,4,4,3,2,4,4,4,3,4,4,4,4,4,3,4,4,2,2,2,1,3,4,2,3,3,1,1,4,2,3,2,2,2,4,4,4,2,4,4,4,4,4,4,4,3,4,3,2,4
SMU,1994,2,1,2,4,1.55,49,3,2,0,0,2,NA,1,2,37.7,36.3,37,1.293106079,103.8558044,70,27,09:28:48,5,1,2,1,NA,4,4,5,NA,8,3,6,2,1,NA,2,8,1,NA,NA,1,1,NA,1,NA,NA,NA,NA,NA,NA,NA,NA,NA,NA,3,3,3,3,3,3,3,2,3,3,3,3,3,3,3,3,3,3,3,3,3,3,3,3,3,3,3,3,3,3,3,3,3,3,3,3,4,4,3,3,3,3,3,3,3,4,3,4,4,4,4,4,4,4,4,4,4,4,4,4,4,4,4,4,4,4,4,4,4,4,4,4,4,4,4,4,4,4,4,4,4,4,4,4,4,4,4,4,4,4,4,4,4,7,7,7,7,5,5,4,4,3,4,4,4,4,4,4,4,3,2,2,2,4,2,3,6,6,3,6,4,2,2,4,4,2,1,2,4,4,4,4,2,2,5,4,4,5,2,3,1,1,5,5,3,3,3,4,4,2,4,4,2,2,3,2,1,4,4,4,2,4,4,4,4,2,4,3,4,1,2,2,2,3,3,3,2,1,5
VCU,1994,2,1,1,1,1.7526,86.36363636,4,2,0,0,2,NA,1,2,37,37,37,38.43479919,-77.98660278,86,7.222222222,10:20:33,5,1,2,1,NA,4,4,4,4,8,3,3,3,2,2,2,8,3,1,8,3,1,NA,1,NA,NA,NA,NA,NA,NA,NA,NA,NA,NA,1,4,5,4,5,5,3,4,5,5,5,5,5,3,3,3,3,3,2,2,3,3,2,3,3,3,3,3,3,3,3,3,3,3,3,3,3,3,3,3,3,3,3,3,3,3,3,1,4,4,4,4,4,4,4,4,4,4,4,4,4,4,4,4,4,4,4,4,4,4,4,4,4,4,4,4,4,4,4,4,4,4,4,5,5,5,5,5,5,5,4,5,4,4,4,4,4,4,4,3,3,3,3,3,3,3,3,3,3,3,3,3,3,3,3,5,7,6,5,5,5,1,4,2,2,5,2,2,5,5,5,4,2,1,3,3,3,3,4,1,4,3,3,3,3,5,2,5,5,3,5,5,2,2,3,3,5,5,2,1,2,4,5,3,4,4,3,4,4,5,3,4,4,4,3,3,3,3,3
Serbia,1994,2,1,1,7,1.75,65,4,2,2,0,2,NA,1,2,37.2,36.8,37,44.81860352,20.46809387,95,6,10:10:14,6,1,2,1,NA,4,4,5,NA,6,4,7,6,1,NA,2,6,1,NA,NA,2,1,NA,2,Udruzenje studenata,NA,NA,NA,NA,3,NA,NA,NA,NA,2,2,1,3,4,3,1,1,3,3,1,1,2,3,4,4,3,3,2,4,4,2,2,4,5,1,2,3,5,3,5,2,1,5,2,5,4,5,5,5,5,2,4,4,3,3,4,7,8,2,7,7,8,7,5,6,2,6,7,2,2,5,5,7,1,2,1,4,1,3,2,5,3,3,NA,NA,1,NA,1,6,6,NA,4,5,3,5,5,4,4,1,4,4,5,6,4,4,6,5,5,1,1,1,2,3,2,2,1,1,2,2,2,1,1,3,1,3,2,3,1,2,2,3,2,5,4,3,1,2,2,5,4,5,5,5,2,2,4,4,4,5,3,5,3,4,3,3,1,2,4,4,4,3,3,2,1,5,4,5,2,2,2,2,4,5,3,1,1,5,5,2,1,5,2,4,5,4,1,1,2
Tsinghua,1994,2,1,2,6,1.55,55,2,2,0,0,2,0,1,2,37,37,37,30.58009338,114.273407,60,13,10:29:06,7,3,2,1,0,4,4,5,0,7,3,5,5,1,1,2,8,1,1,1,1,2,1,2,NA,NA,NA,NA,NA,NA,NA,NA,NA,NA,4,4,2,3,5,3,2,4,4,3,5,4,3,2,3,3,2,2,2,3,2,3,3,2,4,2,3,3,4,3,4,4,4,3,4,4,4,4,4,4,4,1,2,1,3,2,2,6,2,3,5,5,2,2,5,5,2,3,4,4,2,2,5,5,2,2,3,3,3,2,5,5,2,3,2,3,4,2,5,2,3,2,4,4,4,4,4,4,5,5,4,4,4,2,4,5,3,4,3,2,2,1,3,2,2,4,2,3,2,2,2,1,2,2,2,4,6,4,4,5,4,5,2,4,4,4,2,4,4,3,4,4,2,2,2,4,3,2,3,4,2,2,4,4,4,2,2,4,4,2,4,4,3,2,2,4,4,4,4,3,2,4,4,4,3,2,2,4,4,3,2,2,1,2,4,4,3,2,4
Tsinghua,1994,2,1,1,5,1.65,58,3,2,1,0,2,0,1,2,37,37,37,39.92889404,116.3883057,22,8,09:39:57,7,3,2,1,0,2,2,5,0,5,3,5,2,1,1,2,4,1,1,1,1,2,1,2,NA,NA,NA,NA,NA,NA,NA,NA,NA,NA,4,3,4,4,3,4,2,4,2,4,4,3,2,3,3,3,2,2,2,3,4,3,3,3,4,2,3,4,4,4,4,4,4,3,4,3,4,3,4,3,4,2,3,2,3,2,3,5,4,3,4,5,5,3,4,2,3,4,3,3,3,3,4,5,3,3,2,3,3,3,3,3,3,3,2,3,3,3,3,3,3,2,2,5,5,5,4,5,5,5,4,5,6,2,4,4,5,5,5,2,2,2,3,2,2,2,2,3,2,3,2,3,2,3,2,4,6,4,4,4,5,6,2,4,4,4,2,3,3,3,3,4,2,2,4,4,2,3,4,2,2,2,4,4,4,4,4,4,4,3,4,4,2,2,2,2,3,3,3,3,2,4,2,4,4,4,2,4,4,4,3,4,2,4,4,4,3,2,4
Serbia,1994,2,2,1,7,1.75,65,4,2,2,0,1,12,1,2,37.1,37,37.05,44.87080383,20.64030457,95,11,09:53:09,6,1,2,1,NA,4,4,4,1,6,3,7,4,1,NA,2,8,1,NA,NA,1,2,4,1,NA,NA,NA,NA,NA,NA,NA,NA,NA,NA,2,2,3,3,5,4,1,1,2,1,2,5,3,4,2,4,3,2,3,3,5,2,2,1,5,4,3,4,2,1,4,2,2,5,1,5,5,4,5,4,3,1,2,2,2,3,5,1,1,1,1,5,5,3,1,1,2,NA,1,1,1,2,1,5,1,3,1,3,1,2,1,1,1,1,1,1,3,3,1,NA,3,1,NA,4,4,4,5,3,3,2,4,3,3,4,5,3,2,2,5,2,3,1,2,1,1,1,2,4,1,2,2,1,1,5,1,4,2,4,1,2,1,3,2,2,4,4,3,5,1,1,3,3,2,4,2,2,4,2,5,5,4,5,3,5,5,2,1,3,3,2,1,4,3,3,2,4,5,4,4,3,2,1,1,4,3,1,1,4,5,2,2,4,2,5,3,4,4,1,3
Tsinghua,1994,2,3,1,7,1.6,57,2,2,0,0,2,0,1,2,37.1,37.1,37.1,30.58009338,114.273407,78,17,11:06:19,7,3,2,1,0,2,2,5,0,8,8,6,6,1,1,2,8,3,1,8,1,2,1,1,ÀúÊ·ÎÄ»¯Ñ§ÔºÑ§Éú»á,Ãñ×åÎÄ»¯Óë¾«ÉñÑÐ¾¿Ð­»á,NA,NA,NA,3,3,NA,NA,NA,4,3,4,4,3,5,1,2,3,3,4,2,4,3,2,3,2,3,2,2,2,1,4,2,4,2,1,3,3,2,3,1,2,2,3,3,3,2,3,2,3,2,3,2,2,2,2,2,2,3,6,4,4,3,4,4,4,4,4,4,5,2,2,5,3,5,3,4,3,5,3,3,3,2,4,3,4,2,3,2,3,3,4,4,4,4,3,5,5,5,4,3,2,2,2,5,6,5,4,2,3,2,4,2,3,3,3,2,2,2,2,3,2,3,2,4,4,4,2,2,2,3,2,2,4,4,2,2,2,2,4,4,2,2,2,4,4,2,1,4,2,3,4,4,4,4,4,4,3,3,4,3,2,2,2,4,4,4,4,4,2,2,3,4,4,4,2,4,2,4,4,4,2,4,4,4,4,4,4
Tsinghua,1994,2,1,2,7,1.64,47,3,2,0,0,2,0,1,2,37.1,37.1,37.1,30.58009338,114.273407,65,16,11:29:36,7,3,2,1,0,4,4,5,0,6,4,6,4,1,1,2,6,1,1,1,1,2,1,2,NA,NA,NA,NA,NA,NA,NA,NA,NA,NA,4,3,4,4,4,4,2,3,2,4,4,3,2,2,3,3,2,2,2,3,2,2,3,2,4,2,1,3,4,2,4,2,2,4,3,4,4,4,4,3,2,2,3,3,2,2,2,4,4,3,3,4,2,3,3,3,3,3,3,5,3,3,3,3,3,3,3,4,3,4,3,3,3,3,3,3,5,3,3,3,4,3,4,4,4,4,5,4,5,4,4,5,5,2,4,5,6,5,4,2,2,3,2,2,4,2,2,2,2,3,2,2,2,2,1,4,4,7,5,6,2,2,2,4,4,4,2,2,2,2,3,4,2,2,2,3,3,2,4,4,4,4,3,4,4,3,2,4,3,3,4,4,2,2,3,2,4,4,2,3,2,4,3,4,4,2,2,4,4,3,3,4,3,4,4,3,4,2,4
Tsinghua,1994,2,1,1,6,1.62,51,3,2,1,0,2,0,1,2,37,37.2,37.1,30.66670227,104.0667114,70,14,10:09:18,7,3,4,1,0,4,2,5,0,4,3,5,4,1,1,1,2,1,1,2,1,2,1,2,NA,NA,NA,NA,NA,NA,NA,NA,NA,NA,2,5,4,3,4,2,1,1,3,4,3,4,4,3,4,4,5,5,2,3,3,3,4,3,4,4,3,4,4,2,4,4,5,3,4,4,5,5,5,5,4,2,4,3,2,5,4,6,3,5,6,6,6,5,5,3,2,4,5,5,6,5,6,3,2,2,3,2,5,2,4,4,5,2,2,4,3,2,5,2,2,4,3,4,5,3,4,4,5,5,5,5,5,2,4,2,4,5,4,2,2,2,2,4,3,3,2,4,2,4,4,4,4,4,2,3,3,7,2,3,1,1,2,4,4,3,1,1,1,3,5,4,3,1,2,4,4,2,2,3,4,3,3,4,4,3,4,3,4,3,3,3,3,2,3,2,4,3,3,2,2,4,3,4,4,4,3,4,5,4,4,5,2,3,4,3,3,3,2
Zurich,1994,2,1,1,6,1.78,57,2,2,4,0,2,NA,1,2,37.19,37.08,37.135,47.42359924,9.362197876,71,8,10:20:41,1,1,2,1,NA,2,2,4,4,4,1,5,5,2,1,2,8,1,NA,NA,1,1,NA,1,NA,NA,NA,NA,NA,NA,NA,NA,NA,NA,5,2,4,3,2,3,3,4,4,4,5,3,2,3,5,5,3,2,3,2,4,3,2,5,4,3,3,3,4,4,4,2,2,3,3,4,5,4,4,4,2,1,1,3,4,4,2,6,7,7,5,7,7,5,6,6,7,2,7,3,6,5,7,5,7,5,2,5,2,5,3,4,4,4,1,3,3,5,3,6,5,3,6,4,4,4,4,4,5,5,4,4,6,5,6,5,5,5,6,1,2,4,3,2,4,2,4,2,2,4,2,2,1,3,1,5,8,6,6,6,5,4,5,2,2,5,4,4,3,3,3,2,3,1,2,3,3,2,4,4,4,4,3,3,3,5,5,3,4,3,3,4,3,2,3,4,3,4,5,3,2,4,4,3,4,4,2,4,4,3,3,4,3,4,4,3,5,4,4
SMU,1994,1,1,1,6,1.8,76,2,2,8,0,2,NA,1,2,37.3,37,37.15,1.293106079,103.8558044,70,27,10:36:42,5,1,2,1,NA,4,4,5,NA,3,2,6,6,2,2,2,8,1,NA,NA,4,1,NA,1,NA,NA,NA,NA,NA,NA,NA,NA,NA,NA,2,2,2,2,2,2,2,2,2,2,4,4,4,2,4,5,2,2,2,2,4,2,3,4,4,2,4,2,5,2,5,4,4,4,2,4,4,2,2,4,2,2,4,2,4,2,2,5,2,3,5,4,5,5,3,5,2,5,2,3,3,5,5,5,3,3,2,4,3,2,2,2,2,2,2,2,2,2,3,4,2,2,2,4,4,4,2,2,3,3,3,3,3,6,6,6,6,5,6,2,2,1,4,2,3,4,2,2,2,2,2,2,2,2,2,4,4,6,4,4,4,4,2,4,4,2,2,2,4,2,4,5,3,2,4,4,4,4,4,4,2,2,4,2,4,4,2,4,3,4,4,4,2,2,2,2,2,4,2,2,2,4,4,4,4,2,2,4,4,4,2,2,4,4,4,2,2,2,4
Serbia,1994,2,1,1,6,1.68,55,2,2,2,0,2,NA,1,2,37.2,37.2,37.2,44.81860352,20.46809387,44,12,10:06:54,6,1,2,1,NA,4,4,5,NA,3,1,5,5,1,NA,2,8,1,NA,NA,1,2,4,1,NA,NA,NA,NA,NA,NA,NA,NA,NA,NA,3,1,1,4,2,1,1,1,3,1,1,2,3,3,4,4,3,4,3,3,5,3,3,5,5,3,3,3,3,4,4,5,2,3,1,4,4,4,4,4,3,2,3,2,2,1,4,1,1,3,1,1,2,3,1,7,5,1,2,1,1,3,8,1,1,4,6,7,5,5,3,2,7,5,5,5,7,7,2,7,7,3,4,4,4,4,4,4,4,2,2,2,3,3,3,1,3,3,2,4,5,5,5,4,4,5,5,4,5,4,2,2,2,2,1,2,7,5,7,6,6,4,2,4,3,3,1,4,1,2,4,4,5,3,3,3,4,3,4,3,3,3,3,3,3,3,4,3,3,3,4,4,2,3,3,2,2,2,2,4,3,3,4,2,4,3,1,1,5,2,1,4,3,4,4,2,3,1,5
VCU,1994,2,1,1,7,1.5748,65.90909091,4,2,1,0,2,NA,1,2,37.22222222,37.22222222,37.22222222,37.55380249,-77.46029663,94,13.33333333,10:55:38,5,1,2,1,NA,4,4,5,NA,3,2,3,3,2,1,2,3,1,NA,NA,1,1,NA,1,NA,NA,NA,NA,NA,NA,NA,NA,NA,NA,3,2,2,4,2,3,5,3,2,3,4,4,4,3,3,4,3,2,3,2,4,2,2,4,4,2,2,2,4,2,4,4,4,4,4,4,4,4,4,4,2,2,2,4,2,2,2,4,4,3,3,3,6,4,5,4,2,3,3,6,5,3,2,6,2,2,2,3,2,2,3,2,2,3,3,3,1,2,5,5,2,1,2,5,4,4,5,5,3,3,4,3,2,3,3,2,2,2,3,4,4,1,4,3,4,2,4,4,1,2,3,2,2,2,2,4,3,4,3,3,3,3,2,2,2,4,4,4,2,2,4,4,1,1,1,2,4,2,1,2,2,2,4,2,4,5,3,4,4,4,2,2,4,2,2,4,5,3,2,2,2,4,4,4,4,2,2,2,4,4,2,4,3,4,4,4,4,2,4
SMU,1994,2,1,2,5,1.61,54,3,2,1,0,2,NA,1,2,36.9,37.8,37.35,1.293106079,103.8558044,71,26,10:44:57,5,1,2,1,NA,4,2,5,NA,4,3,4,3,2,1,2,6,1,NA,NA,2,1,NA,1,NA,NA,NA,NA,NA,NA,NA,NA,NA,NA,4,3,4,4,4,4,2,2,3,3,4,3,4,3,3,3,2,2,3,3,3,2,3,3,4,2,3,2,2,2,2,2,2,2,2,2,4,4,4,3,4,2,2,2,3,3,4,4,3,4,5,6,6,4,5,3,5,3,3,3,3,6,4,4,5,5,4,5,4,3,5,4,4,4,5,5,5,4,4,5,5,3,5,4,4,4,4,4,5,4,4,4,3,5,5,5,5,5,5,3,2,2,2,3,2,3,2,2,2,2,3,3,2,3,3,3,3,5,2,3,2,2,2,2,4,3,2,3,3,2,3,4,3,2,4,3,2,4,2,3,2,3,4,4,4,4,3,3,4,3,4,4,3,2,3,2,2,4,4,3,2,4,3,4,3,4,2,4,4,2,2,2,3,2,2,3,3,2,4
SMU,1994,2,1,2,7,1.64,60,3,1,0,0,2,NA,2,1,39.3,39.3,39.3,1.293106079,103.8558044,70,26,10:13:07,5,1,2,1,NA,4,3,5,NA,4,3,6,3,1,NA,2,4,1,NA,NA,3,1,NA,1,NA,NA,NA,NA,NA,NA,NA,NA,NA,NA,2,2,3,1,1,3,3,3,2,2,2,2,1,3,3,4,3,3,4,4,3,4,4,3,2,4,4,2,2,3,3,3,2,2,2,3,4,4,4,4,4,4,4,4,4,3,4,4,4,3,3,3,3,2,3,3,3,6,3,4,3,3,3,2,3,7,5,7,5,3,4,4,2,4,5,5,5,4,5,5,5,5,5,4,5,5,5,5,5,4,5,5,3,4,3,3,3,3,4,5,5,4,3,4,4,5,5,5,3,3,2,4,2,3,1,1,2,1,2,2,2,2,3,4,4,1,1,3,4,4,3,4,4,4,5,4,3,5,2,3,4,4,5,5,4,5,3,4,4,5,4,4,4,4,5,1,1,3,4,4,2,3,4,4,1,1,4,4,4,3,3,3,3,3,2,3,4,1,4
METU,1995,1,1,2,5,1.83,80,3,2,NA,NA,1,20,1,2,34.2,35.9,35.05,39.91169739,32.84030151,66,5,11:17:26,3,2,2,1,NA,4,4,5,NA,8,3,8,8,1,NA,2,4,1,NA,NA,1,1,NA,1,NA,NA,NA,NA,NA,NA,NA,NA,NA,NA,2,2,3,2,1,3,1,1,1,1,3,2,2,5,4,3,4,4,3,3,4,3,3,4,5,3,3,2,4,2,3,2,2,2,4,3,3,4,4,4,4,3,3,4,3,3,3,4,4,3,4,5,4,3,5,2,3,7,4,3,5,3,6,4,3,3,3,3,3,2,2,4,3,3,2,2,4,3,3,2,2,2,3,5,4,4,4,4,4,4,3,3,6,7,7,7,7,6,6,2,4,2,4,1,3,4,4,2,4,2,2,3,4,4,2,5,4,2,2,3,3,3,2,2,4,4,3,2,3,2,2,4,4,2,4,4,3,4,2,4,4,4,3,2,4,3,3,4,4,4,4,4,2,3,4,3,3,2,2,3,4,4,2,4,4,2,3,4,3,3,3,4,2,2,2,4,3,3,2
Oxford,1995,1,1,1,7,1.8796,74.93,4,2,12,0,2,NA,1,2,34,36.2,35.1,51.75,-1.25,89,-1.666666667,08:57:08,5,1,1,1,NA,4,4,4,4,2,2,5,5,1,NA,2,8,2,1,6,1,1,NA,1,NA,NA,NA,NA,NA,NA,NA,NA,NA,NA,4,2,3,3,2,4,2,4,1,3,5,4,4,3,3,4,1,2,1,2,2,3,3,3,4,2,2,1,4,1,4,1,1,1,1,4,3,4,2,4,1,1,1,3,3,1,1,1,1,1,1,1,1,1,1,1,1,1,1,1,7,1,3,1,1,2,2,2,2,2,1,1,1,1,1,2,2,1,2,3,1,1,2,1,1,4,1,1,1,1,1,1,7,7,7,7,7,6,6,4,1,1,2,4,1,4,1,1,2,1,1,2,1,1,1,5,6,5,4,3,1,1,4,5,4,4,1,4,4,4,4,5,2,1,4,4,2,2,1,2,2,4,2,2,4,5,4,5,1,4,5,1,1,5,3,3,2,2,4,2,2,3,2,5,2,2,2,4,4,5,5,5,2,5,4,4,2,1,5
Oxford,1995,1,1,1,7,1.7018,74,4,2,2,2,2,NA,1,2,34.1,36.1,35.1,51.75,-1.25,86,0,08:53:38,5,1,2,1,NA,4,4,5,NA,2,1,8,6,1,NA,2,8,1,NA,NA,1,1,NA,1,NA,NA,NA,NA,NA,NA,NA,NA,NA,NA,4,4,5,2,1,2,2,3,1,4,5,4,3,3,3,3,2,2,2,2,2,2,2,2,5,1,2,4,4,2,4,2,2,4,3,4,3,4,5,4,4,2,2,2,4,2,4,5,5,5,4,2,5,5,2,4,2,4,2,5,3,3,2,6,2,2,2,3,3,2,2,2,2,1,3,2,3,2,2,3,3,2,3,4,4,4,4,4,4,2,4,3,7,6,6,6,6,5,6,4,2,2,2,4,2,4,4,2,3,2,3,3,2,2,2,5,7,6,6,4,7,6,4,4,4,5,4,2,4,4,2,4,2,2,4,4,2,2,2,4,4,4,3,3,3,5,4,5,4,4,4,4,1,1,1,3,2,4,2,4,4,1,3,2,1,3,2,4,2,4,4,2,3,4,4,4,2,3,3
METU,1995,1,1,1,7,1.91,89,5,2,17,0,2,NA,1,2,34.6,35.8,35.2,39.91169739,32.84030151,64,6,10:48:31,3,2,2,1,NA,4,4,4,1,8,6,6,6,1,NA,2,8,1,NA,NA,1,1,NA,1,NA,NA,NA,NA,NA,NA,NA,NA,NA,NA,4,4,2,3,3,4,4,2,3,4,4,3,3,2,2,2,2,2,1,2,2,2,1,4,3,2,1,3,3,2,4,3,3,3,1,2,4,4,4,4,4,2,2,1,2,2,4,6,2,2,1,6,4,2,2,2,1,2,2,2,1,2,6,1,1,1,1,2,1,1,2,1,1,1,1,2,2,1,1,1,1,1,2,5,4,5,5,5,5,5,5,5,7,7,6,7,6,5,5,1,2,1,2,1,1,3,1,3,1,2,2,1,3,2,2,5,8,6,6,6,6,7,2,3,3,4,4,4,5,5,4,3,3,3,2,3,3,2,3,4,4,4,4,4,3,5,5,5,4,3,5,4,2,2,3,2,5,4,4,3,3,4,3,4,4,3,2,3,2,4,5,4,4,3,2,3,3,3,1
METU,1995,1,1,1,4,1.9,84,3,1,NA,0,2,NA,1,2,34.9,35.5,35.2,39.91169739,32.84030151,56,4,09:55:40,3,2,2,1,NA,4,4,4,4,3,2,4,3,1,NA,2,6,1,NA,NA,1,1,NA,1,NA,NA,NA,NA,NA,NA,NA,NA,NA,NA,3,4,5,5,2,4,2,4,4,4,5,2,4,3,2,3,3,3,3,3,3,3,3,3,4,3,3,4,4,4,4,4,3,2,1,3,2,3,1,3,2,3,1,2,1,2,3,5,2,2,4,3,4,4,6,4,5,4,2,4,3,5,5,2,2,6,6,4,6,5,5,6,4,4,3,2,7,2,5,3,2,2,3,4,4,4,4,4,5,5,4,4,3,5,5,4,3,3,3,2,4,1,3,3,2,3,4,4,2,2,2,2,3,2,2,2,3,4,1,2,3,2,3,3,4,4,4,4,2,2,4,3,2,4,2,3,4,1,4,5,3,4,4,3,4,4,3,4,4,2,3,3,3,2,3,2,2,3,1,4,3,3,3,4,4,2,2,3,2,5,5,4,2,5,3,3,3,1,3
Oxford,1995,1,1,1,7,1.778,63.63636364,3,2,0.5,1,2,NA,1,2,34.3,36.1,35.2,51.75,-1.25,74,2.777777778,08:44:39,5,1,2,1,NA,4,4,5,NA,3,1,7,7,1,NA,2,8,1,NA,NA,1,1,NA,1,NA,NA,NA,NA,NA,NA,NA,NA,NA,NA,2,1,2,2,2,3,1,2,2,2,3,1,4,2,3,4,2,3,3,3,4,3,4,2,5,3,4,4,5,2,4,4,2,4,4,5,5,4,4,5,4,2,2,3,2,2,3,2,4,3,4,4,5,4,4,4,4,3,2,4,3,5,2,6,1,5,2,4,3,2,3,3,2,3,2,3,3,2,2,4,4,3,3,5,4,4,5,5,4,4,5,3,3,4,4,4,2,2,3,2,2,2,1,1,2,2,1,3,2,1,1,1,1,2,2,3,2,2,1,1,4,1,4,4,5,3,2,2,3,3,2,5,4,2,5,5,3,3,4,4,3,3,4,4,4,3,4,3,3,4,2,2,4,3,4,2,2,4,4,2,2,3,4,2,4,2,2,4,3,2,2,3,2,4,4,3,3,2,2
VCU,1995,2,1,2,1,1.62,51.36363636,2,2,0,0,2,NA,1,2,35.55555556,34.88888889,35.22222222,37.55380249,-77.46029663,80,15,09:36:29,5,1,2,1,NA,4,2,5,NA,1,NA,2,2,2,3,2,1,3,1,4,1,2,5,2,MSA,U2H,NA,NA,NA,3,4,NA,NA,NA,4,3,2,5,5,3,1,4,3,1,4,5,4,4,5,4,3,3,3,2,5,3,3,5,5,2,5,2,4,1,3,4,4,3,3,2,5,5,4,5,5,3,1,2,3,4,4,2,1,1,1,1,2,1,1,6,2,7,1,1,1,1,2,4,1,4,4,3,3,2,2,1,2,4,5,4,4,3,2,2,4,2,4,4,5,5,5,5,5,3,5,5,5,5,4,2,4,4,3,4,5,5,4,4,4,4,5,2,5,4,3,4,3,2,3,4,4,6,2,4,4,4,2,3,3,3,2,4,1,2,5,5,3,2,4,4,2,2,2,1,1,1,4,4,3,1,2,3,3,1,2,2,3,2,3,2,3,3,4,2,1,5,4,4,4,1,2,2,4,2,2,2,4,3,4,3,2,2,3
Oslo,1995,2,1,2,7,1.76,65,4,2,0,26,2,NA,1,2,35.1,35.4,35.25,59.91670227,10.75,81,-4,09:46:57,4,1,2,1,NA,4,2,5,NA,4,2,8,8,2,8,2,6,1,NA,NA,1,1,NA,1,NA,NA,NA,NA,NA,NA,NA,NA,NA,NA,4,4,5,5,4,4,3,4,4,4,4,4,2,1,2,3,2,2,2,2,2,1,2,1,4,2,2,3,3,1,2,3,2,2,1,4,4,4,2,2,2,2,2,2,2,2,2,4,4,4,6,4,4,4,5,4,4,5,4,2,1,2,4,2,4,4,4,5,2,3,5,3,4,4,4,4,4,4,2,4,4,4,4,5,5,4,5,4,2,2,4,4,5,3,3,3,4,4,4,2,4,1,3,1,2,2,2,4,2,1,4,2,2,3,2,3,2,1,1,1,2,1,4,2,4,4,4,2,2,2,2,2,2,2,3,1,1,4,1,3,2,2,2,1,4,2,3,3,4,4,3,4,3,1,3,2,4,2,2,4,2,2,2,4,2,2,2,4,4,2,3,3,2,2,2,2,2,3,1
SMU,1995,2,1,1,7,1.61,49,3,2,2,0,2,NA,1,2,35.4,35.4,35.4,1.293106079,103.8558044,70,26,10:25:37,5,1,2,1,NA,4,4,5,NA,8,4,8,8,2,4,2,8,1,NA,NA,3,1,NA,1,NA,NA,NA,NA,NA,NA,NA,NA,NA,NA,4,2,4,4,4,4,3,3,3,2,4,2,3,4,4,4,3,3,3,2,4,3,3,4,3,2,3,4,4,3,4,4,4,4,5,4,4,4,4,4,4,4,4,4,4,4,3,5,5,5,5,6,5,4,5,5,6,6,6,3,3,5,6,4,3,4,3,5,2,4,6,4,2,2,2,2,2,3,4,2,2,4,3,4,4,4,4,4,4,4,4,4,7,6,6,5,6,5,6,4,3,2,2,4,4,4,4,3,4,4,2,2,2,4,3,1,6,5,4,2,2,3,4,4,4,4,2,3,3,4,3,5,2,3,4,4,4,3,3,3,3,4,4,5,4,4,4,5,5,3,4,4,3,3,4,2,1,4,4,1,3,4,5,3,4,4,2,4,4,4,4,5,1,5,5,4,4,3,4
Serbia,1995,1,1,2,3,1.86,82.5,3,2,4,0,2,NA,1,2,35.2,35.8,35.5,44,21,42,7,09:44:53,6,1,2,1,NA,4,4,5,NA,3,1,3,3,1,NA,2,8,1,NA,NA,1,1,NA,1,NA,NA,NA,NA,NA,NA,NA,NA,NA,NA,2,2,2,5,2,2,1,2,2,2,2,2,3,4,2,3,3,3,3,3,3,3,4,4,4,3,2,2,4,1,4,1,3,2,1,3,2,4,3,3,1,3,2,2,2,2,3,2,1,2,4,4,4,2,5,6,3,NA,2,2,1,3,1,3,1,3,4,5,4,3,2,3,5,5,3,4,5,4,4,5,6,3,4,4,4,4,5,5,3,3,3,3,5,3,4,4,3,4,4,4,4,1,4,2,3,4,4,1,3,2,2,2,2,2,2,3,4,5,1,4,4,4,3,3,4,4,2,2,3,3,3,4,2,1,1,3,5,4,3,3,3,3,3,3,4,4,1,1,1,3,4,3,3,2,2,1,2,3,1,5,3,1,1,5,2,1,4,3,2,1,3,3,4,3,1,3,2,3,1
VCU,1995,2,1,2,6,1.651,47.72727273,4,2,3,0,2,NA,1,2,35.33333333,35.72222222,35.52777778,37.55220032,-77.45819855,81,14.44444444,10:06:33,5,1,2,1,NA,4,4,5,NA,2,2,5,5,2,1,2,8,1,NA,NA,1,2,1,2,NA,NA,NA,NA,NA,NA,NA,NA,NA,NA,3,3,3,3,3,3,3,3,3,3,3,3,3,4,3,4,2,3,2,2,2,3,2,3,4,3,3,3,3,4,2,4,2,4,2,3,2,3,2,4,2,2,2,2,2,3,3,5,5,5,4,4,5,6,6,3,6,2,5,5,5,5,4,4,5,5,3,5,2,4,3,5,4,3,3,5,2,3,5,2,4,3,2,4,4,4,4,4,4,4,4,4,7,5,5,5,5,5,5,4,3,2,2,4,2,4,2,2,4,2,3,2,3,4,4,3,2,4,3,2,2,2,4,4,5,5,5,5,5,5,5,2,2,2,2,2,2,2,2,2,2,2,4,4,4,4,4,4,4,3,4,3,2,2,2,2,5,4,4,2,4,4,4,2,4,1,1,4,4,4,2,2,4,4,2,2,5,1,1
Oxford,1995,1,1,2,1,1.8288,76,4,2,0,0,2,NA,1,2,34.7,36.4,35.55,51.75,-1.25,89,-1.666666667,08:39:12,5,1,2,1,NA,4,4,5,NA,2,1,5,5,1,NA,2,8,1,NA,NA,8,1,NA,2,Rowing Club,Rugby Club,NA,NA,NA,7,7,NA,NA,NA,3,5,5,5,2,3,4,3,3,5,5,5,4,2,2,3,2,2,2,2,2,2,2,2,4,2,2,3,3,2,3,2,2,2,3,2,4,4,2,4,3,1,2,1,2,1,3,1,1,1,2,2,1,1,2,6,2,2,2,4,1,2,1,3,2,5,5,4,4,3,4,3,3,1,3,6,5,4,3,4,5,3,3,4,4,4,4,4,2,2,3,3,1,2,3,2,2,2,2,2,3,1,3,2,1,1,2,1,2,1,2,3,4,5,4,3,3,3,2,2,4,4,2,4,4,4,4,4,3,4,3,2,4,2,3,2,2,2,2,3,4,2,4,1,5,3,3,4,4,4,3,3,2,2,3,2,4,4,4,4,4,2,3,4,2,2,2,4,2,2,2,4,3,2,2,2,3,2,1
Oxford,1995,1,1,1,6,1.66,66,4,2,6,0,2,NA,1,2,34.6,36.5,35.55,51.75,-1.25,89,-1.666666667,08:04:56,5,1,2,1,NA,4,4,5,NA,3,1,7,6,2,2,2,7,3,1,4,1,1,NA,1,NA,NA,NA,NA,NA,NA,NA,NA,NA,NA,4,3,3,4,2,4,1,4,1,3,3,3,3,3,4,5,2,3,3,2,4,2,4,4,5,2,5,3,4,1,4,4,5,2,1,2,4,4,2,4,1,2,1,1,4,1,4,2,2,4,3,3,6,2,6,2,3,3,2,6,2,6,2,6,1,3,3,5,5,5,7,6,2,3,5,2,6,2,5,3,3,2,2,4,4,4,4,5,4,3,4,5,4,6,7,6,5,3,5,2,4,2,2,4,4,4,2,2,4,3,2,2,1,4,2,3,4,4,6,2,5,5,2,2,4,5,4,3,4,3,4,4,4,4,2,4,5,2,3,4,4,4,5,2,4,4,2,5,4,4,4,2,1,3,4,2,3,5,2,5,3,3,2,4,4,2,2,4,4,2,3,1,2,4,2,4,4,2,3
Oxford,1995,2,1,1,7,1.6256,57,3,2,4,0,2,NA,1,2,33.2,37.9,35.55,51.75,-1.25,74,2.777777778,08:20:15,5,1,2,1,NA,4,4,5,NA,7,2,5,5,1,NA,2,7,1,NA,NA,1,1,NA,1,NA,NA,NA,NA,NA,NA,NA,NA,NA,NA,1,4,4,5,3,1,2,3,4,4,3,4,5,4,4,4,3,2,3,2,4,3,3,2,5,3,3,2,4,2,4,3,4,5,4,4,4,4,4,4,4,3,2,2,4,4,5,3,5,2,5,6,5,2,6,5,3,5,3,2,5,3,5,7,5,2,2,2,1,1,1,1,2,2,2,1,2,2,1,2,1,1,3,5,4,4,5,4,2,2,3,4,5,5,5,5,6,6,6,4,2,1,3,4,2,4,3,2,2,2,2,2,2,4,2,5,7,6,7,6,4,6,5,4,2,4,5,5,4,3,5,1,3,1,1,1,5,1,2,4,4,5,1,2,5,5,5,5,3,5,3,2,1,4,3,2,2,4,5,2,2,3,2,4,3,4,1,4,2,5,4,5,1,3,4,4,4,4,2
Kassel,1995,1,1,2,3,1.79,68,3,2,0,0,2,NA,1,2,35.7,35.5,35.6,51.31669617,9.5,71,1,09:39:29,1,1,2,1,NA,4,4,4,4,7,5,7,7,2,1,2,8,1,NA,NA,4,1,NA,1,NA,NA,NA,NA,NA,NA,NA,NA,NA,NA,3,3,4,5,2,3,4,4,2,4,3,3,4,4,2,3,3,2,2,3,3,3,3,3,4,2,2,1,1,1,2,2,1,1,1,3,4,3,3,4,3,1,1,1,2,1,2,4,4,4,4,4,4,4,4,4,4,4,4,4,4,3,4,4,4,4,4,4,4,4,4,4,4,4,4,4,4,4,4,4,4,4,4,4,4,4,5,4,2,2,4,3,4,5,5,5,4,4,3,1,2,2,2,2,2,2,2,2,2,2,2,1,2,2,1,5,6,5,4,3,2,4,3,2,2,4,3,3,4,3,2,3,2,3,2,3,3,2,2,2,2,4,2,3,3,3,3,4,3,4,4,3,2,3,2,2,2,4,2,3,3,3,2,4,3,2,2,4,2,2,3,2,3,2,2,2,2,3,2
Oxford,1995,1,1,2,5,1.7,60,3,2,4,0,2,NA,2,2,35.5,35.7,35.6,51.75,-1.25,74,2.777777778,08:33:50,5,1,2,1,NA,4,3,5,NA,8,1,4,4,1,NA,2,8,1,NA,NA,1,1,NA,2,AIESEC,Other university societies,NA,NA,NA,6,4,NA,NA,NA,3,4,3,4,3,3,2,3,2,5,4,4,4,3,4,3,2,2,3,2,2,3,4,2,4,3,3,2,4,2,4,2,3,2,3,3,4,2,3,3,2,2,2,2,4,3,2,3,2,2,2,2,5,2,5,3,2,6,4,3,3,4,4,5,2,5,2,3,2,3,4,3,3,2,2,1,2,1,4,3,2,3,2,5,4,4,4,4,4,2,4,3,5,5,4,5,5,6,3,2,2,2,3,2,2,3,3,2,3,2,2,1,3,4,3,3,4,3,2,3,5,3,3,4,4,2,1,3,4,4,3,5,4,1,4,4,2,4,4,4,2,3,4,4,4,4,2,4,3,3,4,4,3,3,3,2,3,3,4,3,2,4,4,4,3,2,2,3,5,3,3,2,3,5,3,3,3,2,4
Oxford,1995,1,3,2,6,1.8,60,2,2,5,0,2,NA,1,2,35,36.2,35.6,51.75,-1.25,86,0,08:15:00,5,1,2,1,NA,4,1,5,NA,5,1,4,3,1,NA,2,5,1,NA,NA,1,1,NA,1,NA,NA,NA,NA,NA,NA,NA,NA,NA,NA,4,2,3,3,3,4,2,2,4,3,4,3,3,2,2,4,3,4,3,2,4,3,4,3,5,3,3,3,5,3,4,4,5,4,4,5,2,2,2,3,2,1,3,4,5,2,2,5,3,4,3,3,5,2,5,1,3,2,4,4,1,6,1,5,1,4,4,3,6,6,6,6,6,7,2,3,4,2,5,4,4,5,4,4,4,3,4,5,4,2,3,2,3,3,3,4,4,4,4,2,3,1,4,2,1,2,3,4,2,2,2,1,3,3,3,3,4,4,3,2,3,2,4,4,4,4,4,1,2,1,2,5,3,1,4,4,4,2,5,2,1,2,5,5,1,3,4,4,4,1,3,4,3,3,2,2,3,3,3,2,2,4,5,2,3,2,4,3,3,4,2,2,3,2,2,2,3,2,1
Oslo,1995,2,1,2,7,1.72,64,4,2,2,1.5,2,NA,1,2,35.1,36.2,35.65,59.91670227,10.75,58,-2,10:37:51,4,1,2,1,NA,4,4,5,NA,8,2,8,6,2,2,2,8,3,1,1,1,1,NA,2,Fotballag,Studentfotball,NA,NA,NA,7,7,0,0,0,3,4,4,4,4,1,4,2,3,4,3,5,2,1,1,2,2,3,1,2,2,2,2,1,2,3,1,2,3,1,2,1,1,3,3,4,3,4,2,2,2,1,2,1,3,2,3,4,4,4,5,4,4,4,3,4,4,5,4,4,2,4,4,2,4,4,4,6,2,2,1,2,4,4,4,4,4,4,3,4,4,4,4,4,4,4,5,5,4,3,4,5,3,3,3,3,2,2,2,1,2,4,2,1,1,1,1,1,1,1,2,3,1,2,3,3,4,1,1,1,2,2,2,2,2,5,5,5,1,3,3,2,2,2,2,3,4,2,4,4,2,4,4,1,5,4,4,3,3,5,3,4,3,1,3,2,1,5,1,5,3,2,1,4,2,3,1,4,4,4,5,5,1,4,3,4,3,2,3
Oxford,1995,1,1,2,4,1.9812,72.72727273,3,2,0,0,1,3,1,2,34.7,36.6,35.65,51.75,-1.25,71,1.666666667,08:28:13,5,1,2,1,NA,4,4,5,NA,3,2,8,6,1,NA,2,8,1,NA,NA,2,1,NA,1,NA,NA,NA,NA,NA,NA,NA,NA,NA,NA,2,2,2,2,1,2,2,1,2,2,2,4,2,2,5,3,2,3,4,3,4,4,4,3,2,4,4,3,3,3,3,3,3,3,3,3,3,3,3,3,3,3,3,3,3,3,3,4,4,4,4,4,6,4,6,4,4,6,4,4,2,5,4,5,4,4,4,4,7,7,4,4,4,4,4,4,4,4,4,4,4,4,4,4,4,4,2,4,5,5,5,5,7,6,5,5,5,6,7,2,4,1,2,2,2,4,5,1,2,1,1,3,2,4,1,3,4,4,3,2,2,4,2,3,4,4,2,1,2,1,3,4,3,2,4,4,2,3,4,2,1,1,5,5,3,2,2,3,4,2,3,4,3,2,3,1,1,1,1,1,3,4,2,2,3,1,5,3,4,2,2,4,1,4,3,4,2,2,2
Kassel,1995,2,1,1,6,1.77,63,4,2,3,0,2,NA,1,2,35,36.3,35.65,50.93330383,9.216705322,71,9,10:37:01,1,1,1,1,NA,4,4,2,2,6,3,6,6,1,NA,2,6,3,2,8,1,1,NA,1,NA,NA,NA,NA,NA,NA,NA,NA,NA,NA,4,2,4,3,2,3,2,3,2,3,3,2,2,4,4,4,3,3,3,3,4,3,2,3,4,4,3,4,4,4,4,4,3,4,4,4,4,3,4,4,4,2,4,4,4,2,4,5,3,4,5,4,4,5,5,3,2,2,5,4,4,5,2,5,2,5,4,5,2,2,4,3,2,2,2,2,2,2,2,7,7,2,2,4,4,3,4,2,3,3,3,3,3,3,3,4,4,4,4,3,4,2,3,2,3,3,4,4,3,3,2,4,2,4,3,5,5,3,4,3,6,6,2,3,1,5,4,4,2,2,4,3,3,1,1,3,3,1,2,3,3,4,2,3,4,5,5,5,3,3,4,3,1,3,4,4,5,4,3,3,3,3,3,4,4,4,2,4,4,3,3,2,4,4,2,2,4,2,2
VCU,1995,2,1,2,7,1.6256,61.36363636,3,2,14,0,2,NA,1,2,35.38888889,35.94444444,35.66666667,37.55220032,-77.45819855,94,13.33333333,09:44:08,5,1,2,1,NA,4,4,5,NA,4,4,8,8,2,8,2,8,1,NA,NA,4,1,NA,2,Raas Team (Dance),Swadhyay,Math Major Group,NA,NA,16,5,2,NA,NA,5,2,3,5,2,4,4,4,1,2,4,2,4,3,3,5,2,2,2,2,3,1,3,4,5,3,4,2,4,2,2,4,4,2,2,2,2,2,4,2,2,2,2,2,4,2,2,3,3,2,3,3,3,3,3,3,3,3,3,2,3,3,3,6,3,5,3,5,3,3,3,2,3,3,3,3,3,3,2,3,6,3,3,5,5,5,5,5,3,3,3,3,5,4,4,4,4,4,4,1,2,1,2,2,4,2,2,3,1,3,2,1,2,4,2,4,5,3,4,4,4,4,2,2,2,4,4,3,4,4,4,3,3,2,4,4,4,2,4,4,2,4,4,4,4,4,4,4,4,4,4,4,1,4,3,1,4,5,4,4,2,4,4,4,2,2,2,2,4,4,2,2,2,4,2,2,2,2,2
VCU,1995,2,1,1,7,1.5748,50,4,2,1,0,2,NA,1,2,35.5,35.83333333,35.66666667,38.85569763,-77.46970367,37,17.77777778,09:37:27,5,1,2,1,NA,4,4,5,NA,8,5,5,5,1,NA,2,3,1,NA,NA,1,1,NA,1,NA,NA,NA,NA,NA,NA,NA,NA,NA,NA,3,4,4,4,3,4,3,3,3,3,4,3,3,3,2,3,2,2,1,3,2,3,3,1,3,2,2,3,4,2,2,2,3,4,3,3,2,3,4,4,2,1,1,1,2,2,3,3,3,1,4,4,2,2,4,4,2,3,4,2,4,2,1,4,2,1,1,4,2,1,2,1,2,2,2,2,1,2,1,4,4,2,3,4,4,4,4,5,4,4,4,4,7,6,6,6,6,5,5,3,3,2,2,3,2,3,3,3,2,1,3,5,1,2,2,5,7,5,3,3,3,3,4,2,3,4,3,5,2,4,4,4,3,3,3,3,3,3,4,4,2,4,4,3,3,4,4,4,3,3,4,4,2,3,3,4,4,3,2,5,3,3,2,4,2,2,2,5,3,4,4,4,3,5,3,3,3,3,4
Oxford,1995,2,1,1,7,1.72,55,5,2,0,0,2,NA,1,2,35,36.4,35.7,51.75,-1.25,89,-1.666666667,08:09:17,5,1,2,1,NA,4,1,5,NA,4,1,8,8,1,NA,2,8,1,NA,NA,1,1,NA,2,Choir,Rowing,The JCR,NA,NA,7,7,7,NA,NA,3,2,3,4,3,1,2,2,3,4,5,3,4,2,3,3,1,2,2,2,3,2,1,2,5,1,2,3,3,1,3,1,1,3,1,5,2,2,1,3,1,1,1,1,2,2,2,3,3,4,4,2,4,1,1,2,2,2,2,2,1,2,1,5,4,2,1,2,2,1,3,2,1,1,1,1,2,1,1,2,2,1,3,5,5,5,5,5,4,4,5,4,5,5,5,5,5,3,3,2,4,1,2,2,1,3,2,1,1,1,2,1,1,1,1,5,8,6,3,4,3,5,2,4,4,4,2,2,2,4,4,4,3,1,5,4,3,3,2,4,4,3,4,2,4,5,5,4,4,4,4,4,2,2,4,2,1,4,3,4,2,2,2,2,2,2,4,4,4,2,4,4,2,5,4,4,4,2,2
Tsinghua,1995,2,1,2,1,1.68,56,2,2,0,0,2,0,1,2,35.3,36.1,35.7,30.66670227,104.0667114,86,18,10:52:38,7,3,2,1,0,4,2,5,0,8,2,5,3,1,1,2,8,1,1,1,1,2,1,2,NA,NA,NA,NA,NA,NA,NA,NA,NA,NA,1,4,3,2,4,4,1,1,1,3,2,3,4,3,3,3,3,3,3,3,3,3,3,3,4,3,3,2,4,4,3,2,2,4,4,4,4,2,2,4,2,2,2,2,2,2,2,5,5,1,4,7,5,6,7,2,5,1,4,3,2,6,1,7,1,2,4,4,3,2,2,5,4,5,4,5,4,2,5,3,1,1,4,4,4,4,4,4,4,4,4,4,7,1,3,5,5,5,5,2,2,2,2,2,2,2,2,2,2,2,3,3,2,2,2,5,6,7,1,5,1,6,1,3,3,4,2,4,2,2,4,3,2,1,1,2,4,2,4,4,2,2,4,4,3,4,4,4,4,2,2,2,1,1,2,3,2,4,3,3,3,4,3,4,4,2,2,4,4,2,2,2,3,4,3,3,5,2,2
Oslo,1995,2,1,1,7,1.77,67,3,1,NA,NA,2,NA,1,2,35.1,36.3,35.7,59.91270447,10.74609375,70,-2,10:40:01,4,1,2,1,NA,4,4,5,NA,2,2,8,5,1,NA,2,3,3,1,4,1,1,NA,1,NA,NA,NA,NA,NA,NA,NA,NA,NA,NA,2,2,3,3,3,4,1,2,2,3,4,3,2,2,2,2,2,2,2,2,3,3,3,2,4,3,2,4,4,1,4,2,2,5,3,5,5,4,5,4,3,1,3,3,1,5,4,2,5,2,2,7,2,2,2,2,2,2,3,5,3,4,2,5,2,6,1,1,2,2,2,2,2,6,2,4,2,4,2,2,2,2,2,4,4,4,4,4,4,4,4,4,4,6,4,4,6,3,3,1,4,1,3,1,1,3,4,3,1,1,2,4,3,4,3,1,2,1,1,1,3,1,1,3,2,4,3,4,3,3,3,3,3,1,1,2,5,1,5,4,3,3,2,2,4,5,4,4,4,4,3,3,1,1,2,2,2,2,2,2,4,3,2,3,4,4,2,3,4,4,4,3,2,3,4,4,3,2,1
UCSB,1995,2,1,1,7,1.6002,56.81818182,4,1,0,0,2,NA,2,2,35.72222222,35.77777778,35.75,34.41940308,-119.7071991,80,8.333333333,NA,5,1,2,1,NA,4,4,5,NA,2,1,5,5,2,1,2,3,1,NA,NA,1,1,NA,1,NA,NA,NA,NA,NA,NA,NA,NA,NA,NA,2,2,2,2,2,2,2,2,2,2,4,2,2,4,4,4,2,2,2,2,4,2,1,4,4,2,5,2,2,2,5,3,3,3,3,2,4,4,4,4,4,2,1,1,1,1,4,5,5,5,7,5,5,7,5,5,6,1,7,6,5,5,7,6,4,5,1,6,2,5,3,3,3,3,2,1,3,3,3,2,2,3,3,4,4,4,4,4,4,4,4,4,7,7,6,6,6,6,6,2,2,2,4,2,2,2,2,2,2,2,4,2,4,4,2,5,6,7,5,5,5,5,2,4,4,4,2,4,2,2,4,4,2,2,2,4,4,2,4,2,4,4,4,4,4,4,2,4,2,4,5,5,1,2,1,2,4,4,4,4,4,4,4,2,2,4,4,4,4,4,4,4,4,4,4,4,4,2,4
Tsinghua,1995,1,3,1,6,1.8,80,3,2,2,0,2,0,1,2,35,36.5,35.75,39.92889404,116.3883057,21,11,09:39:38,7,3,2,1,0,4,4,5,0,3,2,4,4,2,4,2,4,1,1,1,1,1,8,2,Ö¾Ô¸ÖÐÐÄ,ÔºÍÅÎ¯,NA,NA,NA,9,5,NA,NA,NA,3,3,4,4,3,4,1,4,4,3,4,3,4,2,3,3,2,2,1,2,2,2,3,1,4,2,1,3,3,2,4,4,4,2,3,4,4,4,4,4,2,3,2,3,4,3,4,3,2,3,3,5,5,4,5,4,4,3,3,5,3,5,2,6,2,2,3,5,3,3,4,3,3,3,3,3,5,3,5,3,5,3,4,4,4,3,4,4,4,3,4,4,6,4,4,6,6,6,6,2,2,2,2,2,2,2,2,2,2,2,2,2,2,3,2,5,8,6,2,2,5,3,4,4,5,4,1,2,4,4,3,5,4,2,4,4,3,2,4,5,3,2,2,4,4,3,4,4,3,4,4,4,2,3,2,2,5,5,4,3,2,4,4,4,4,2,3,4,4,4,4,3,4,4,4,4,4,2,4
METU,1995,2,1,1,7,1.61,60,3,2,4,0,2,NA,1,2,35.8,35.8,35.8,39.91169739,32.84030151,71,7,11:10:25,3,2,2,1,NA,4,4,4,1,8,4,8,8,1,NA,2,8,3,1,3,1,2,8,2,AGT,ODT? K?PR?,NA,NA,NA,7,6,NA,NA,NA,3,4,3,3,4,5,2,2,2,1,4,2,2,2,3,3,2,2,1,2,3,2,3,3,4,2,3,4,4,3,4,4,2,2,1,4,2,4,4,4,4,4,3,2,1,1,4,6,5,4,5,4,4,2,4,3,4,3,1,2,5,1,6,1,2,2,1,2,1,1,1,1,1,1,1,4,1,1,1,2,1,1,4,5,5,5,5,5,5,4,3,4,4,5,4,4,6,4,5,2,1,1,2,1,2,3,2,1,3,2,2,1,1,2,4,5,6,6,5,6,4,2,1,3,2,4,5,4,3,2,4,2,2,1,1,3,5,1,5,4,3,5,4,3,4,5,5,3,3,3,4,5,2,2,2,4,4,3,4,2,1,5,2,3,5,3,1,3,4,5,3,5,3,5,3,5,5,1,5
Oslo,1995,1,1,1,7,1.88,85,3,2,NA,NA,2,NA,1,2,36,35.7,35.85,59.91270447,10.74609375,83,-11,11:00:41,4,1,1,1,NA,4,4,4,2,6,3,5,3,1,NA,2,3,3,1,2,1,1,NA,1,NA,NA,NA,NA,NA,NA,NA,NA,NA,NA,2,2,2,5,5,3,1,3,2,4,3,5,5,2,1,2,1,2,2,2,2,2,2,3,4,3,2,1,1,1,1,1,1,1,1,1,4,4,4,4,4,1,1,1,1,1,4,5,4,1,2,2,1,5,3,2,5,2,1,1,4,1,4,2,2,6,3,4,3,4,1,5,2,1,2,3,3,1,5,2,2,3,1,4,3,4,4,3,3,3,4,4,3,4,4,4,4,3,3,2,4,2,4,2,1,3,3,4,3,1,2,4,2,4,3,5,6,4,1,2,6,4,2,3,3,4,2,2,2,1,4,3,4,3,2,2,3,2,2,4,3,3,3,4,2,5,4,4,4,4,3,3,3,3,3,1,1,4,3,2,4,2,4,2,3,4,2,2,4,4,3,4,3,1,1,1,1,2,4
Kassel,1995,1,1,1,7,1.88,72,4,2,1,0,2,NA,1,2,35.5,36.2,35.85,51.31669617,9.5,55,3,10:06:46,1,1,2,1,NA,4,4,4,4,4,4,4,4,1,NA,2,8,1,NA,NA,1,1,NA,1,NA,NA,NA,NA,NA,NA,NA,NA,NA,NA,3,3,4,4,3,4,2,3,3,3,4,2,3,2,3,3,3,2,2,3,2,2,3,3,4,2,2,1,2,1,2,1,1,3,1,3,4,3,2,4,2,1,1,2,1,1,2,1,1,1,1,4,1,1,1,1,1,1,1,1,2,2,1,3,1,1,1,2,1,1,1,1,1,1,1,1,1,2,1,2,4,1,1,4,5,4,5,5,4,2,4,4,4,3,4,3,2,2,3,2,3,1,3,2,2,2,2,3,3,2,2,2,2,3,1,4,4,4,2,2,3,4,2,3,2,4,2,1,1,1,1,4,2,2,3,4,3,2,3,4,2,5,4,5,4,3,2,4,2,1,3,2,1,1,2,1,2,4,3,2,2,2,3,2,2,2,3,3,3,4,4,4,2,5,3,3,3,1,3
Oslo,1995,2,1,1,4,1.65,59,4,2,1,0,2,NA,1,2,35.5,36.2,35.85,59.91670227,10.75,70,-7,10:46:38,4,1,2,1,NA,4,4,4,1,8,5,8,8,1,NA,2,6,3,1,2,1,1,NA,1,NA,NA,NA,NA,NA,NA,NA,NA,NA,NA,4,4,5,5,4,5,4,4,4,5,5,4,5,3,2,2,2,2,2,2,2,2,2,4,4,1,1,2,3,1,3,2,2,2,4,5,4,4,4,4,2,1,1,1,1,2,2,6,1,1,2,7,1,1,2,1,1,1,2,1,2,2,2,2,1,2,2,2,1,1,1,1,1,1,2,2,2,2,1,4,4,1,1,5,5,5,5,5,3,1,5,4,4,4,4,2,5,4,4,2,2,1,2,2,2,2,2,1,3,1,2,1,2,3,2,4,5,7,2,4,2,3,2,2,3,5,5,3,2,2,4,3,2,2,2,2,2,2,3,2,3,4,2,1,4,5,5,4,4,5,4,4,1,1,1,1,3,4,3,1,2,2,2,4,4,3,3,5,5,3,4,4,1,5,5,3,4,1,1
METU,1995,2,1,1,2,1.63,55,3,1,4,4,1,15,1,2,35.6,36.1,35.85,39.91169739,32.84030151,74,12,10:56:49,3,2,1,1,NA,4,2,4,1,4,3,4,3,1,NA,2,8,1,NA,NA,1,2,6,1,NA,NA,NA,NA,NA,NA,NA,NA,NA,NA,3,3,5,4,3,3,3,2,3,5,4,4,4,2,3,4,4,3,2,3,2,3,4,4,5,3,2,3,3,4,2,4,2,1,3,3,5,3,3,3,4,2,1,3,2,2,4,7,6,2,5,7,6,2,5,6,1,7,2,2,2,4,7,3,2,1,1,6,2,1,1,2,2,2,1,1,2,1,2,2,2,1,3,4,4,4,4,4,4,5,4,3,5,3,3,3,3,4,4,2,2,4,3,3,4,2,2,1,3,3,2,1,1,2,2,4,6,6,1,4,2,2,1,2,2,4,2,5,4,4,5,4,4,2,2,4,5,1,5,2,4,4,2,2,5,5,5,5,3,3,5,3,2,4,1,2,4,4,3,1,1,3,2,4,2,5,1,5,2,5,3,4,1,4,5,5,3,1,2
METU,1995,2,1,1,7,1.6,52,4,2,9,1,2,NA,1,2,35.6,36.1,35.85,39.91169739,32.84030151,69,6,09:58:01,3,2,1,1,NA,4,4,4,4,5,3,7,7,2,3,2,8,1,NA,NA,4,1,NA,1,NA,NA,NA,NA,NA,NA,NA,NA,NA,NA,4,5,5,3,1,3,5,5,4,4,4,1,4,3,3,3,2,2,2,2,2,2,2,3,3,2,2,4,2,2,4,4,2,4,4,4,4,4,4,4,4,3,3,3,2,2,4,1,1,2,5,6,7,6,2,1,1,1,1,2,2,1,6,2,2,2,1,6,1,1,1,2,2,1,1,2,2,1,2,6,6,5,2,5,5,5,5,5,2,2,5,2,6,5,5,5,6,5,5,1,2,1,2,1,2,2,1,1,2,3,2,1,3,3,4,3,4,6,4,4,4,4,2,2,4,4,1,3,5,4,4,5,5,2,4,5,5,4,2,3,5,5,4,1,5,5,5,5,5,5,5,5,1,1,1,2,5,5,5,5,1,2,2,5,2,4,2,5,4,5,5,5,4,5,5,4,2,2,4
SMU,1995,2,1,1,7,1.62,52,5,2,0,0,2,NA,1,2,35.7,36,35.85,1.293106079,103.8558044,70,27,09:30:31,5,1,2,1,NA,4,4,5,NA,2,2,5,4,1,NA,2,8,1,NA,NA,1,1,NA,1,NA,NA,NA,NA,NA,NA,NA,NA,NA,NA,4,2,5,5,4,5,5,5,3,2,5,5,5,2,2,3,2,2,2,2,3,2,2,2,4,2,3,4,4,3,4,4,4,4,4,3,4,4,4,4,4,2,2,2,2,2,4,2,2,2,2,2,2,2,2,2,2,2,2,2,2,2,2,2,2,2,6,6,2,2,2,2,2,2,2,2,2,2,2,2,2,2,2,5,5,5,5,5,5,5,5,5,3,5,5,5,5,4,4,2,2,2,2,2,2,2,2,4,2,2,2,2,2,4,2,4,5,4,3,3,4,3,2,2,4,2,1,2,4,4,4,4,4,2,4,4,4,4,2,2,4,4,4,4,4,4,4,4,4,3,4,3,2,3,2,2,2,3,4,2,2,4,4,2,4,4,2,4,4,4,4,4,2,4,4,4,4,4,4
Oxford,1995,1,1,2,7,1.64,60,4,1,0,0,2,NA,1,2,35.8,36,35.9,51.75,-1.25,89,-1.666666667,09:23:26,5,1,1,1,NA,4,4,1,NA,8,6,4,1,1,NA,2,8,3,8,5,3,1,NA,1,NA,NA,NA,NA,NA,NA,NA,NA,NA,NA,4,4,4,4,4,4,3,4,2,4,3,4,5,2,3,3,3,2,2,2,2,2,3,2,4,4,2,2,2,2,2,2,2,2,2,2,3,2,3,3,3,2,2,3,3,3,2,6,4,2,5,5,2,3,5,2,3,7,4,3,3,4,5,5,5,3,4,3,2,2,3,3,4,5,3,2,2,4,2,3,3,3,3,5,5,5,5,5,4,5,5,5,6,7,6,7,6,7,6,2,2,2,2,2,2,2,2,4,2,2,2,2,2,3,2,1,2,6,2,3,2,2,2,4,3,3,3,3,4,5,2,5,3,2,5,5,2,4,3,3,2,4,4,4,3,3,3,3,3,3,3,3,3,3,3,4,4,4,4,4,2,3,3,3,4,2,3,4,3,2,3,3,4,4,4,3,4,4,2
METU,1995,2,1,1,7,1.67,53,3,2,1,0,2,NA,1,2,35.6,36.2,35.9,39.91169739,32.84030151,71,8,10:30:12,3,2,2,1,NA,4,4,5,NA,8,5,8,6,1,NA,2,8,1,NA,NA,1,1,NA,1,NA,NA,NA,NA,NA,NA,NA,NA,NA,NA,3,2,4,4,2,3,2,4,4,4,4,2,3,4,5,5,4,4,3,3,3,4,4,4,5,4,3,3,2,2,2,3,4,4,4,2,4,2,4,3,4,1,1,4,4,1,4,2,2,1,1,6,7,1,2,3,5,3,1,5,3,2,6,2,1,2,2,2,2,2,1,1,2,2,2,2,2,1,2,1,1,1,2,5,5,4,4,5,5,3,4,2,3,6,7,6,7,5,5,2,2,5,3,2,2,4,2,3,2,2,2,2,3,3,3,4,6,6,1,3,7,4,1,1,4,4,1,1,5,4,4,5,5,1,3,2,4,5,4,4,4,3,5,4,5,5,5,5,5,3,4,5,2,2,1,3,3,2,4,2,1,4,3,4,3,5,4,4,4,4,4,3,4,1,2,4,2,1,5
Tsinghua,1995,2,1,1,5,1.59,51,4,2,2,0,2,0,1,2,35.4,36.4,35.9,39.92889404,116.3883057,51,7,09:38:44,7,3,2,1,0,4,4,5,0,4,1,6,3,1,1,2,5,1,1,3,1,2,1,1,Ñ§Éú»î¶¯×éÖ¯,Ö¾Ô¸»î¶¯×éÖ¯,ÉçÍÅ»î¶¯,NA,£Î£Á,3,2,1,NA,NA,3,2,3,4,3,3,3,4,2,2,4,3,2,3,1,4,3,3,2,3,2,3,3,2,4,2,1,3,3,3,4,4,4,2,4,4,4,2,2,4,2,2,1,1,4,1,4,6,3,4,5,6,5,5,4,4,2,5,2,2,4,4,5,6,2,2,2,6,2,5,2,3,2,3,2,2,6,3,2,2,6,3,3,4,4,4,4,4,4,4,2,3,4,2,4,5,4,3,4,2,3,3,2,2,4,4,2,4,2,3,2,4,2,2,2,4,5,5,2,4,3,5,2,4,4,4,2,4,2,2,4,4,3,3,4,4,2,4,2,2,2,2,4,4,4,4,4,4,4,3,4,4,2,3,2,4,4,4,4,4,2,4,4,4,2,4,2,4,4,4,2,4,2,4,4,4,2,2,4
Oxford,1995,1,1,2,1,1.72,70,4,2,1,0,2,NA,1,2,37,34.8,35.9,51.75,-1.25,89,-1.666666667,08:13:51,5,1,2,1,NA,4,4,5,NA,4,3,4,3,1,NA,2,5,1,NA,NA,3,1,NA,1,NA,NA,NA,NA,NA,NA,NA,NA,NA,NA,2,4,4,5,2,2,5,3,2,2,3,3,3,3,3,4,2,2,1,2,3,1,2,3,3,2,2,4,4,4,4,3,2,4,4,2,3,4,3,3,3,2,3,3,3,4,3,4,4,4,4,4,4,4,4,4,4,4,4,4,4,4,4,4,4,4,4,4,4,4,4,4,4,4,4,4,4,4,4,4,4,4,4,5,4,4,4,4,4,4,4,4,5,4,4,4,4,4,4,2,4,3,4,3,2,4,3,3,2,2,2,4,2,4,3,4,5,4,2,4,3,4,3,4,5,4,2,3,2,3,1,5,4,1,3,3,3,2,4,3,2,4,5,2,3,3,3,3,3,2,3,4,3,2,3,2,2,2,2,4,3,3,3,3,2,2,3,3,4,3,2,3,3,3,3,3,3,2,3
METU,1995,2,1,1,7,1.78,70,3,2,NA,NA,2,NA,1,2,35.6,36.2,35.9,39.91169739,32.84030151,60,9,10:14:56,3,2,1,1,NA,4,4,4,1,6,3,6,5,1,NA,2,8,1,NA,NA,1,2,8,2,Ankara G?n¨¹ll¨¹ Tak?m?,K?pr¨¹,NA,NA,NA,10,6,NA,NA,NA,4,4,4,3,2,4,2,2,2,3,4,2,2,4,3,4,2,2,2,2,4,2,2,4,4,2,3,4,4,4,4,4,4,4,3,4,4,4,4,4,4,2,3,3,2,3,4,6,3,2,5,6,6,5,2,3,2,7,2,2,1,1,6,3,2,1,1,2,2,2,2,1,2,2,2,1,2,2,2,2,2,1,2,5,5,5,5,5,4,3,4,4,7,7,7,7,6,6,7,2,2,2,2,2,2,2,2,2,2,2,2,2,4,2,2,5,6,6,2,4,3,3,2,2,2,5,4,3,5,3,3,4,3,1,1,3,4,2,4,4,4,4,2,3,5,5,5,5,5,5,5,5,1,1,1,2,4,4,4,3,2,3,3,3,4,5,1,4,2,5,5,4,1,5,5,5,4,2,4
SMU,1995,2,3,2,3,1.6,49,3,2,0,0,2,NA,1,2,36,35.8,35.9,1.293106079,103.8558044,71,26,09:36:04,5,1,2,1,NA,4,4,5,NA,1,NA,6,5,1,NA,2,8,1,NA,NA,1,2,3,2,Scholarship programme,School club,LGBT support group,NA,NA,4,1,6,NA,NA,2,3,4,3,1,3,1,3,2,1,4,2,4,3,3,3,2,3,2,2,2,2,2,4,4,2,2,5,5,4,5,3,3,4,4,4,4,4,3,4,4,1,2,2,4,4,4,5,5,5,5,4,5,2,5,5,4,5,4,4,4,5,4,5,4,4,4,5,4,4,4,5,4,4,4,4,5,4,5,4,5,3,4,5,4,5,5,4,5,5,5,5,3,5,4,4,5,5,5,2,3,3,4,2,4,2,3,3,2,2,1,1,2,3,3,4,6,4,5,4,6,6,2,4,4,2,1,3,3,3,4,4,2,1,4,4,4,4,4,3,2,3,5,2,4,5,4,3,3,3,3,3,3,3,2,2,2,3,1,4,1,2,2,4,1,3,3,3,5,3,3,3,3,4,2,2,3,1,5
VCU,1995,2,1,1,7,1.7018,59.09090909,3,1,3,0,2,NA,1,2,35.94444444,35.88888889,35.91666667,37.55220032,-77.45819855,94,13.33333333,10:17:56,5,1,2,1,NA,4,4,4,3,2,2,8,8,1,NA,2,8,3,1,5,1,1,NA,2,Delta Epsilon Mu,Alpha Gamma Delta,NA,NA,NA,15,3,NA,NA,NA,2,2,4,4,2,5,3,3,2,3,4,3,4,2,3,4,2,3,1,2,2,3,3,4,5,2,2,4,5,2,5,2,4,5,3,5,4,4,5,4,5,2,5,2,5,2,5,4,4,4,6,7,4,4,5,4,2,4,4,5,5,5,4,5,1,2,2,2,2,2,1,2,1,1,2,2,2,1,1,1,2,1,3,5,3,4,4,4,5,5,4,4,7,7,5,7,7,7,5,1,1,1,1,1,1,2,1,1,1,1,2,1,1,3,1,5,8,7,6,6,4,5,4,4,2,5,2,4,4,5,5,4,2,1,4,4,2,1,4,1,4,5,4,3,5,5,5,5,3,5,3,3,1,2,3,3,5,3,4,2,2,3,3,3,3,4,2,1,5,4,4,4,1,5,5,4,5,5,5
VCU,1995,2,1,2,5,1.6256,50,3,2,0,0,2,NA,1,2,35.27777778,36.61111111,35.94444444,NA,NA,68,10.55555556,11:20:41,5,1,2,1,NA,4,2,5,NA,3,3,3,3,1,NA,2,6,3,1,2,1,1,NA,1,NA,NA,NA,NA,NA,NA,NA,NA,NA,NA,5,4,4,3,2,3,3,4,4,3,5,5,4,2,2,3,1,1,1,3,2,4,3,3,5,2,3,2,2,2,2,2,2,2,3,2,4,2,3,1,2,1,3,2,2,2,2,2,3,3,3,4,2,1,5,2,3,2,3,2,2,5,2,6,1,3,2,3,3,2,4,5,3,2,2,2,2,2,5,3,3,3,3,4,4,3,4,4,3,3,4,3,4,4,5,4,4,3,4,2,2,4,3,2,4,2,3,4,2,2,2,3,2,3,2,3,3,3,2,2,3,4,2,2,3,4,3,4,2,3,4,4,2,1,2,2,3,2,3,3,2,2,4,3,3,4,2,4,3,3,4,3,2,3,3,2,4,4,4,4,2,3,3,2,3,2,1,4,4,3,3,3,3,4,4,4,4,2,2
UCSB,1995,2,1,1,6,1.6256,54.54545455,3,1,0,0,1,0,1,2,35.61111111,36.27777778,35.94444444,NA,NA,86,12.22222222,NA,5,1,2,1,NA,4,4,5,NA,8,1,5,1,1,NA,2,8,1,NA,NA,1,1,NA,1,NA,NA,NA,NA,NA,NA,NA,NA,NA,NA,2,4,2,4,2,4,2,2,2,4,4,4,2,2,4,3,2,2,2,2,2,2,2,2,4,2,2,2,4,2,4,2,2,2,2,2,2,2,4,2,2,2,2,2,2,4,2,2,2,2,2,2,2,2,2,2,2,2,2,2,2,2,2,2,2,2,2,2,2,2,2,2,2,2,2,2,2,2,2,2,2,2,2,5,5,5,5,5,4,2,3,4,3,3,3,3,2,2,2,2,4,2,4,2,4,2,2,2,2,2,2,2,2,2,2,5,6,5,2,3,3,1,2,4,4,4,2,4,4,4,2,4,2,2,4,4,2,3,4,4,4,4,4,3,4,4,3,4,4,3,4,4,2,2,2,4,4,4,2,2,4,4,2,2,4,4,2,4,4,4,4,4,2,4,4,4,4,2,4
Poland,1995,2,1,1,7,1.65,75,5,2,22,0,2,NA,1,2,36.3,35.6,35.95,54.3500061,18.66670227,78,2,11:37:40,9,1,1,1,NA,4,2,3,1,6,4,2,2,2,1,2,6,2,1,1,1,1,NA,1,NA,NA,NA,NA,NA,NA,NA,NA,NA,NA,3,4,4,4,3,4,4,4,2,4,4,3,4,3,2,3,5,5,5,5,2,4,4,3,4,4,2,4,4,3,2,2,1,3,1,3,4,4,4,4,4,2,2,2,2,4,4,1,1,1,1,1,5,1,1,1,1,7,1,1,1,1,4,2,2,1,1,4,1,1,1,1,2,1,1,1,2,1,1,4,4,2,2,5,5,5,5,5,4,4,5,5,2,4,4,4,3,2,2,2,2,2,2,2,3,4,2,2,3,4,3,2,2,2,2,4,4,6,3,4,4,2,4,4,2,4,2,3,3,3,3,4,2,2,2,2,2,2,2,2,2,4,4,4,4,4,4,4,3,2,4,3,1,1,1,1,3,4,3,3,3,4,4,2,4,4,4,2,4,4,4,3,2,3,4,4,3,2,4
SMU,1995,2,1,2,3,1.6,55,4,2,0,0,2,NA,1,2,36,35.9,35.95,1.293106079,103.8558044,70,27,10:12:04,5,1,2,1,NA,4,4,5,NA,3,2,8,6,2,2,2,8,1,NA,NA,1,1,NA,2,Overseas Community Service Group,School projects,NA,NA,NA,15,5,NA,NA,NA,4,4,4,4,2,3,4,5,4,5,4,4,5,2,2,2,2,2,2,2,2,2,2,3,4,2,2,3,5,1,4,4,1,2,2,3,2,2,2,2,2,2,2,2,2,2,2,1,2,2,4,5,3,2,5,1,2,2,1,3,2,3,2,2,2,2,3,5,3,2,2,2,2,3,1,3,3,3,2,3,3,1,3,3,3,4,4,4,4,4,4,4,7,7,7,7,5,6,6,2,2,2,2,3,4,2,2,3,1,2,4,2,2,2,2,4,4,4,2,2,5,4,2,2,4,3,3,2,4,4,3,5,4,2,4,4,3,4,2,4,3,4,4,4,3,5,4,4,4,4,4,4,2,4,2,2,2,2,3,4,2,4,3,2,2,4,3,4,4,2,4,4,2,4,3,3,3,3,4
METU,1995,2,1,2,6,1.55,50,2,1,NA,NA,2,NA,2,2,36.4,35.5,35.95,39.91169739,32.84030151,71,7,11:07:17,3,2,2,1,NA,4,4,5,NA,8,4,4,3,1,NA,2,8,1,NA,NA,3,1,NA,1,NA,NA,NA,NA,NA,NA,NA,NA,NA,NA,4,3,1,4,3,3,3,1,1,1,3,2,1,3,4,4,3,3,3,4,3,3,3,3,4,3,3,5,5,2,5,2,3,1,1,2,2,2,2,2,2,2,2,2,2,2,2,5,2,2,5,7,6,5,5,2,1,2,2,2,2,2,5,4,2,1,1,3,1,2,2,2,1,1,1,1,1,1,2,1,1,1,3,5,2,5,4,3,5,5,5,5,2,5,4,4,3,3,3,2,2,2,2,2,3,2,2,3,2,2,2,2,4,2,1,4,8,7,6,6,6,6,1,3,3,5,5,4,5,3,4,2,2,1,1,2,4,1,4,5,3,5,4,3,4,5,5,5,5,3,5,5,1,1,1,2,4,3,1,3,4,4,4,5,5,5,1,4,4,5,3,5,3,5,5,5,3,1,1
Poland,1995,2,1,1,7,1.68,54,4,2,20,14,2,NA,1,2,35.8,36.1,35.95,52.25,21,68,0,11:02:58,9,1,2,1,NA,4,4,4,4,5,3,5,3,2,1,2,8,2,1,1,1,1,NA,1,NA,NA,NA,NA,NA,NA,NA,NA,NA,NA,2,5,4,4,5,4,2,4,2,3,4,3,5,3,4,3,5,4,4,5,3,2,3,3,5,4,3,3,4,2,4,3,4,2,3,4,5,5,5,4,5,1,4,2,2,2,5,6,5,2,2,4,2,2,1,2,1,6,2,2,1,2,4,2,1,2,3,5,1,4,3,3,6,2,2,2,6,4,3,6,6,1,1,5,5,3,5,5,5,5,5,5,5,4,4,4,6,5,4,5,4,1,4,2,4,5,3,3,3,3,1,5,2,2,2,5,5,4,3,2,5,6,2,5,4,4,2,3,2,3,4,4,2,2,4,5,4,3,2,3,2,4,4,5,3,5,4,4,4,3,4,4,1,1,1,3,4,3,4,1,2,3,4,3,5,3,2,3,4,4,4,4,4,2,3,2,3,2,2
Oxford,1995,2,1,2,7,1.7,75,4,2,3,0,1,3,1,2,35.9,36.1,36,51.75,-1.25,86,0,08:33:20,5,1,2,1,NA,2,2,5,NA,2,2,5,3,1,NA,2,8,1,NA,NA,8,1,NA,2,Portuguese faculty,German tutorial group,Polo,college,NA,7,4,3,7,NA,2,2,4,3,2,3,2,4,2,1,5,3,4,1,5,4,2,1,2,2,1,2,2,3,5,2,2,1,1,2,2,1,1,3,1,1,3,2,2,2,2,2,1,1,2,1,2,4,6,5,6,6,5,4,6,2,4,4,3,4,1,6,2,6,1,5,4,6,6,5,4,4,6,6,5,4,4,3,5,2,6,5,4,5,4,3,4,4,3,2,2,2,2,2,3,1,3,3,2,2,2,1,2,2,2,1,4,1,1,1,1,2,1,3,2,3,2,1,2,2,2,2,2,2,4,4,2,2,2,1,4,4,3,2,5,4,4,2,2,5,3,2,5,4,5,4,4,3,2,3,3,3,3,2,3,1,4,5,2,5,2,1,2,4,2,1,2,3,4,2,1,2,4,4,2,2,2,2,2
Oslo,1995,2,1,1,6,1.7,64,4,2,NA,NA,2,NA,1,2,36,36,36,59.91270447,10.74609375,70,-2,09:46:09,4,1,1,1,NA,2,2,4,2,3,2,6,6,1,NA,2,8,3,1,4,1,1,NA,1,NA,NA,NA,NA,NA,NA,NA,NA,NA,NA,2,3,3,5,1,4,1,3,1,3,2,3,4,4,4,4,3,4,2,3,5,1,3,2,5,3,4,4,4,2,3,2,2,2,3,5,5,5,4,5,4,2,4,3,2,2,2,2,2,5,2,7,3,2,2,2,1,2,1,1,2,7,2,5,1,2,2,4,2,2,2,2,2,6,2,3,3,2,2,2,5,1,2,5,4,4,5,5,5,3,4,3,5,6,7,6,5,4,5,1,2,1,3,1,1,1,3,5,1,3,3,1,2,4,3,4,4,3,1,2,1,1,2,4,4,4,3,2,2,2,4,4,5,1,4,5,5,3,4,4,4,4,4,2,2,4,3,3,3,3,3,3,2,2,3,2,1,4,3,2,2,3,4,5,4,4,1,5,5,5,5,2,4,4,3,1,4,2,2
SMU,1995,2,3,2,6,1.72,70,3,2,2,0,1,3,1,2,35.5,36.5,36,1.293106079,103.8558044,70,26,10:36:48,5,1,2,1,NA,4,4,5,NA,1,NA,8,8,2,1,2,8,1,NA,NA,1,2,3,2,Even organising committee,NA,NA,NA,NA,1,NA,NA,NA,NA,4,2,1,2,1,2,2,1,3,1,3,3,3,3,3,4,4,3,4,2,4,4,2,3,4,3,4,5,4,2,5,5,1,4,5,5,4,5,5,4,5,2,5,4,2,5,5,4,5,6,5,6,4,4,7,4,5,5,2,4,2,3,6,6,2,2,1,2,2,3,2,3,4,3,3,3,3,3,3,2,2,1,3,5,5,5,5,5,4,4,5,5,5,5,3,6,6,6,4,2,2,1,2,2,1,4,2,1,1,1,4,5,4,4,4,4,6,5,3,2,1,4,2,5,5,2,1,2,2,2,4,5,5,1,5,5,4,5,2,5,4,5,3,5,4,5,5,4,2,4,3,2,2,2,3,1,1,4,2,2,2,3,5,4,4,4,3,4,4,4,4,2,1,3,4,2,3,1,2
VCU,1995,2,1,1,6,1.6002,55,1,3,0,0,2,NA,1,2,35.72222222,36.33333333,36.02777778,37.28790283,-77.41529846,89,15,09:43:15,5,1,2,1,NA,4,4,5,NA,2,2,3,3,2,8,2,4,1,NA,NA,1,2,4,1,NA,NA,NA,NA,NA,NA,NA,NA,NA,NA,2,1,1,4,2,3,1,2,2,1,3,4,4,4,3,4,3,3,3,3,3,4,3,4,3,3,4,4,4,4,4,4,2,2,5,4,4,4,4,4,4,2,2,2,4,3,4,6,5,6,6,5,5,2,5,2,4,6,5,2,6,7,5,6,2,5,4,5,6,4,6,5,3,5,4,3,3,4,7,4,6,3,3,5,5,5,5,5,2,2,4,4,4,5,4,6,6,3,4,4,3,3,4,2,4,4,4,4,4,4,2,2,2,1,2,3,2,3,2,2,4,4,1,5,5,1,1,2,1,1,1,5,5,1,5,5,4,4,3,1,1,1,5,5,4,3,3,4,4,2,2,2,2,2,2,2,5,4,3,1,4,5,4,4,4,1,2,4,4,1,2,1,4,4,2,2,2,1,1
METU,1995,2,1,1,6,1.78,72,4,2,0,0,2,NA,1,2,35.5,36.6,36.05,39.91169739,32.84030151,62,5,11:12:40,3,2,2,1,NA,4,4,5,NA,4,3,3,3,1,NA,2,7,1,NA,NA,1,2,1,1,NA,NA,NA,NA,NA,NA,NA,NA,NA,NA,4,2,3,4,3,4,1,2,2,3,4,2,2,3,4,4,4,3,3,3,3,4,3,3,4,3,3,3,3,2,4,4,2,4,1,2,4,4,3,3,4,1,1,2,1,2,4,6,1,1,3,6,6,5,2,2,1,3,1,1,2,1,5,1,1,1,1,2,2,1,5,5,2,2,1,1,1,1,5,2,2,2,2,4,4,4,4,5,4,3,4,4,5,5,5,5,4,4,4,2,2,1,2,2,2,1,2,2,1,2,1,2,3,2,1,4,6,6,1,4,5,4,3,1,4,5,3,1,2,4,2,5,5,2,3,5,5,2,2,2,2,5,4,3,4,4,4,4,4,3,4,4,1,1,1,4,4,2,2,2,3,2,3,4,2,1,2,2,4,4,3,4,2,4,4,4,2,2,4
METU,1995,1,1,2,6,1.87,65,4,2,0,0,1,8,1,2,35.9,36.2,36.05,39.91169739,32.84030151,56,4,10:38:43,3,2,2,1,NA,4,4,5,NA,6,3,6,5,1,NA,2,6,1,NA,NA,2,1,NA,2,foto?raf??l?k,bostan,samsun tayfa,y¨¹zy?l tayfa,NA,12,4,1,6,NA,4,4,2,4,3,4,2,2,2,2,3,3,3,3,3,3,3,3,3,3,2,3,3,2,4,2,3,3,3,4,3,3,2,4,2,2,4,3,4,4,3,2,2,2,2,2,2,5,3,4,4,4,5,3,4,3,4,3,3,4,5,5,6,3,3,2,3,3,3,3,2,3,3,3,3,2,5,2,3,3,3,2,4,4,4,4,4,4,4,3,3,4,4,5,5,4,6,6,5,2,3,1,3,2,2,4,2,2,2,2,2,2,2,3,2,4,6,3,2,4,4,1,4,2,4,4,2,2,4,3,3,4,3,2,2,3,3,2,4,3,3,4,3,3,4,4,4,4,4,4,4,4,2,2,3,3,2,3,2,4,2,2,2,4,4,3,2,3,2,4,4,4,2,3,3,4,2,3,2
SMU,1995,2,1,1,7,1.54,47.5,3,2,NA,0,2,NA,1,2,36.1,36,36.05,50.917099,103.8558044,70,27,10:51:12,5,1,2,1,NA,4,4,5,NA,6,6,5,4,1,NA,2,8,1,NA,NA,2,2,2,2,APEX Business Global-IT Case Challenge Organising Committee,NA,NA,NA,NA,2,NA,NA,NA,NA,3,1,2,2,2,4,1,1,1,3,3,2,1,3,3,2,3,3,2,2,3,3,3,4,2,2,2,3,4,2,4,4,5,1,1,4,4,4,4,3,2,1,1,1,2,2,3,2,2,1,1,1,2,1,5,1,2,2,1,1,2,1,2,1,1,2,2,1,2,3,1,2,1,2,1,1,1,2,2,1,1,2,1,5,4,5,5,5,4,2,3,3,6,5,5,3,4,3,5,2,2,2,3,1,2,3,3,1,1,1,3,4,2,4,2,4,5,5,2,4,4,4,3,4,5,2,1,2,5,5,4,5,5,2,4,5,4,5,1,3,3,3,5,5,2,4,3,5,4,3,4,4,1,1,2,1,2,4,2,2,3,4,4,3,1,4,2,3,4,4,5,5,2,3,4,4,2,1,5
Southampton,1995,2,1,1,7,1.7,62,3,2,0,0,2,NA,1,2,35.9,36.2,36.05,1.293106079,-1.424804688,60,3,10:21:49,5,1,2,1,NA,4,2,4,1,4,4,8,8,2,8,2,8,3,1,4,1,2,4,1,NA,NA,NA,NA,NA,NA,NA,NA,NA,NA,4,4,4,5,5,5,3,4,1,2,3,5,4,3,2,4,3,2,3,3,4,2,4,3,4,2,3,2,4,2,4,2,2,4,4,4,4,4,4,4,2,2,2,2,2,2,4,2,4,2,3,2,3,1,5,3,2,3,2,5,2,1,2,5,1,1,2,2,1,2,2,1,1,2,1,1,1,2,2,4,3,1,1,4,5,4,4,5,4,2,4,4,7,5,4,3,5,5,5,2,2,1,2,4,2,2,2,2,2,2,2,2,1,2,1,4,5,6,2,3,3,1,2,4,2,4,4,4,4,4,4,4,2,2,2,4,5,2,4,4,2,2,4,4,5,4,4,4,4,3,4,5,2,2,4,2,4,5,4,2,2,4,2,4,4,4,2,2,5,4,3,4,4,4,4,5,5,2,2
SMU,1995,2,1,1,7,1.68,60,3,2,0,0,2,NA,1,2,35.9,36.2,36.05,1.293106079,103.8558044,71,26,09:23:13,5,1,2,1,NA,4,4,5,NA,2,4,6,6,2,3,2,6,1,NA,NA,1,1,NA,1,NA,NA,NA,NA,NA,NA,NA,NA,NA,NA,4,4,4,4,4,4,2,3,2,4,5,4,5,4,2,3,2,2,2,2,3,2,2,2,5,2,3,4,4,4,4,4,4,3,3,4,4,2,4,4,2,2,2,2,2,2,4,5,5,5,5,5,5,3,5,5,5,5,4,5,5,6,5,7,2,5,4,5,4,4,5,5,5,5,3,4,4,4,5,5,4,5,4,4,4,3,4,4,4,3,4,4,6,6,6,6,6,6,6,4,4,4,4,4,4,4,4,3,4,2,2,4,2,5,2,5,5,5,3,3,5,6,4,3,4,3,1,2,4,4,4,4,4,1,5,3,3,3,4,4,1,2,4,5,4,3,3,4,3,3,3,3,2,2,2,4,2,4,4,4,2,2,4,4,4,3,3,4,4,2,3,3,4,5,3,4,2,3,4
SMU,1995,2,4,2,6,1.62,72,2,2,5,1,2,NA,1,2,36.1,36,36.05,1.293106079,103.8558044,79,26,10:48:29,5,1,2,1,NA,4,4,5,NA,6,1,4,4,1,NA,2,8,1,NA,NA,1,1,NA,2,Co-Cirricular Activity,NA,NA,NA,NA,5,NA,NA,NA,NA,4,2,1,2,1,4,2,3,1,1,2,2,2,3,2,4,3,3,3,4,3,3,3,2,5,1,3,4,4,4,5,4,2,4,4,4,4,3,2,2,1,1,1,2,2,4,2,4,5,5,5,3,7,2,5,4,2,3,3,4,4,3,3,7,1,3,3,5,5,3,5,6,3,3,3,3,6,3,5,3,4,3,3,4,4,4,5,5,4,4,4,3,5,5,4,4,7,6,5,2,2,2,2,2,2,4,2,2,5,2,2,1,2,2,2,1,1,1,1,2,2,1,4,4,5,2,1,2,4,5,3,5,5,1,3,5,5,4,4,4,3,4,4,2,5,4,4,3,3,4,2,2,4,2,3,2,2,3,2,4,1,3,2,4,4,4,4,4,4,4,4,2,4,4,3,2,2,1,2
SMU,1995,2,1,2,6,1.6,55,3,2,1,0,2,NA,1,2,35.9,36.2,36.05,1.293106079,103.8558044,70,26,09:56:46,5,1,2,1,NA,4,4,5,NA,2,2,8,8,2,1,2,8,1,NA,NA,1,1,NA,2,Project Group Mates,CCA Mates,Exco members,Ex school mates,Dance Mates,5,20,6,6,2,3,2,2,2,3,4,2,3,2,2,2,2,4,4,4,4,3,3,3,3,4,3,3,4,4,3,4,4,4,4,4,4,4,4,4,4,4,4,4,4,4,2,3,4,4,2,4,4,4,4,4,4,4,4,4,4,4,2,4,4,4,4,4,4,4,4,4,4,4,4,4,4,4,4,4,4,4,4,4,4,4,4,4,5,5,5,5,5,5,5,5,5,6,5,5,5,5,5,5,2,2,3,2,2,2,2,3,3,2,2,3,4,2,4,2,5,7,4,1,1,1,7,3,4,4,2,2,2,2,4,4,4,4,2,4,4,4,4,4,3,3,3,5,5,2,2,4,3,4,3,3,4,3,2,3,3,2,2,2,2,3,3,4,2,4,2,2,4,4,3,2,3,2,4,2,3,4,3,4
Oxford,1995,2,4,1,7,1.6256,60,3,1,1,1,2,NA,1,2,36,36.2,36.1,51.75,-1.25,74,2.777777778,08:02:47,5,1,2,1,NA,4,4,4,1,3,1,8,8,1,NA,2,8,3,8,8,1,2,7,2,Committee,Volunteer RA,Part-time Job,Undergraduate Coursemates,Hometown Friends,3,6,6,5,3,3,2,4,5,4,2,2,3,5,4,5,4,4,1,3,3,2,2,2,2,2,3,2,2,5,3,1,1,2,1,1,1,1,1,2,2,2,3,2,2,2,2,2,2,4,1,1,2,3,2,6,5,4,1,5,4,1,5,1,2,1,2,1,2,1,1,1,2,1,1,1,1,1,1,2,1,1,1,1,1,2,2,2,4,4,4,3,2,1,1,2,4,6,5,4,5,5,4,4,2,2,1,2,1,3,2,2,1,2,2,2,3,1,1,2,5,8,7,4,5,2,3,2,4,4,4,3,4,3,4,4,4,2,2,3,4,4,2,2,4,2,2,5,4,5,4,3,5,1,3,5,2,2,5,3,2,2,4,4,2,2,2,4,4,4,2,2,4,4,2,2,4,2,5,4,5,4,2,4
Zurich,1995,2,1,1,7,1.63,59,3,1,2,0,2,NA,1,2,36.1,36.1,36.1,47.39439392,8.447402954,88,-2,20:34:34,1,1,2,1,NA,4,4,4,1,5,3,4,4,1,NA,2,7,1,NA,NA,2,1,NA,2,Chor,Uni,Familie,Freunde,WG,6,7,3,3,1,2,3,4,3,3,3,2,2,3,4,4,3,3,2,3,4,3,2,2,2,4,2,2,3,4,2,3,4,4,2,4,2,1,3,2,4,4,4,3,4,2,2,3,4,2,2,2,5,3,3,4,4,3,6,3,4,3,4,5,3,3,2,3,3,2,2,2,3,2,2,3,3,3,3,3,5,2,4,2,5,3,3,3,5,5,5,4,4,4,4,4,4,4,7,7,6,6,6,6,3,4,2,3,3,4,4,4,2,2,4,1,2,2,4,2,4,5,6,4,4,4,5,4,2,2,5,4,4,2,2,1,2,2,2,3,4,2,1,3,4,2,4,3,4,4,4,3,4,4,4,4,3,2,2,4,2,4,4,2,4,2,2,3,3,3,4,2,4,4,3,4,4,4,4,4,3,3,3,3
Tsinghua,1995,1,1,1,1,1.72,67,3,2,8,0,2,0,1,2,36.1,36.1,36.1,30.58009338,114.273407,74,16,10:39:20,7,3,2,1,0,4,2,5,0,1,0,5,2,1,1,2,8,2,2,8,1,2,1,2,°à¼¶,NA,NA,NA,NA,NA,NA,NA,NA,NA,4,4,3,4,3,4,1,3,2,3,4,3,2,2,4,4,3,2,1,3,2,3,3,2,4,2,2,3,4,3,3,4,3,2,4,5,3,4,2,2,2,2,2,2,2,3,2,6,5,2,6,6,6,6,2,1,4,3,2,4,4,2,4,5,2,3,2,2,2,1,1,2,1,2,2,2,2,2,1,1,2,2,4,4,4,4,4,4,3,3,2,4,7,2,2,3,6,6,5,3,3,3,3,3,4,3,3,3,3,3,3,3,2,3,3,5,7,1,6,1,5,6,2,2,4,4,2,2,1,2,2,5,4,4,2,4,2,2,2,4,2,2,4,4,4,1,1,5,4,4,3,3,4,3,2,2,2,3,4,2,2,4,2,4,4,1,3,4,1,1,1,3,4,4,4,3,4,3,1
VCU,1995,2,1,2,7,1.6256,65,5,2,36,0,2,NA,1,2,35.94444444,36.27777778,36.11111111,36.42900085,-77.72470093,89,11.66666667,10:56:36,5,1,4,1,NA,3,3,5,NA,5,3,6,6,1,NA,2,8,3,1,8,1,1,NA,1,NA,NA,NA,NA,NA,NA,NA,NA,NA,NA,5,5,5,5,2,4,3,3,2,3,5,5,3,4,5,5,4,5,4,5,5,4,2,4,5,3,4,4,4,4,4,2,2,4,4,4,4,4,4,4,4,2,2,2,4,4,4,3,3,3,5,6,5,2,2,3,5,2,3,5,3,3,6,3,2,5,3,7,2,2,2,1,3,2,2,3,1,2,2,7,7,2,5,5,5,5,5,5,5,2,5,5,7,6,4,3,3,6,6,5,5,1,4,2,5,4,5,5,5,2,2,3,2,3,3,5,7,5,1,5,6,6,2,4,4,4,2,5,5,3,5,5,2,1,4,4,4,5,2,4,2,4,5,5,2,5,5,4,4,4,3,3,1,1,3,5,5,5,4,2,2,4,2,5,4,1,1,4,5,5,2,4,1,4,4,2,4,1,2
METU,1995,1,1,2,7,1.75,88,3,2,2,NA,2,NA,1,1,36.3,36,36.15,39.91169739,32.84030151,64,2,11:02:30,3,2,2,1,NA,4,4,5,NA,4,1,5,5,1,NA,2,8,1,NA,NA,4,1,NA,2,Biyogen Ekoloji,PFS Ankara,NA,NA,NA,20,45,NA,NA,NA,3,2,2,4,2,2,2,1,3,3,3,4,3,4,3,2,3,3,2,2,3,3,3,4,4,3,2,1,1,1,3,2,1,1,1,1,3,2,2,3,2,1,1,1,2,3,2,3,1,1,1,4,1,2,4,2,2,1,3,4,5,3,3,4,1,1,2,1,2,6,1,1,1,2,3,2,3,2,1,1,2,1,4,3,4,4,3,4,3,2,1,1,5,3,5,4,5,4,5,3,2,3,2,2,4,4,2,2,3,2,2,2,2,2,2,3,3,3,1,1,3,2,4,4,4,4,3,1,1,3,2,4,4,2,3,5,5,4,2,3,4,4,3,4,5,3,4,5,3,2,4,3,1,2,1,1,2,4,4,2,1,4,3,4,4,4,3,4,3,4,4,4,2,4,2,3,1,1,3
SMU,1995,2,1,1,6,1.6,52,4,2,4,0,2,NA,1,2,36.1,36.2,36.15,1.293106079,103.8558044,79,26,09:37:36,5,1,2,1,NA,4,1,5,NA,1,NA,3,8,2,2,2,8,1,NA,NA,1,1,NA,2,AIESEC,NA,NA,NA,NA,7,NA,NA,NA,NA,3,3,4,4,3,2,2,3,2,2,2,2,5,3,2,3,3,2,2,3,4,3,3,3,4,4,3,2,3,2,3,1,2,3,2,1,3,3,3,3,1,1,1,1,1,2,1,5,3,3,5,5,4,3,5,4,5,5,4,4,3,3,5,4,3,3,3,5,3,3,4,3,4,4,5,3,5,4,3,5,4,4,4,4,4,4,4,4,4,4,4,4,1,4,2,4,4,2,3,4,2,3,2,2,3,3,2,3,2,2,2,2,2,3,2,1,2,4,2,2,2,2,2,2,4,3,2,2,2,2,2,5,3,2,3,5,5,3,3,4,2,4,2,3,3,3,3,4,4,4,4,3,2,2,2,2,2,2,2,4,3,3,3,3,2,3,3,3,3,3,3,3,3,3,3,2,3,3,4
METU,1995,1,1,1,7,1.84,74,4,2,4,0,2,NA,1,2,36,36.3,36.15,39.91169739,32.84030151,64,6,11:10:30,3,2,2,1,NA,4,4,4,1,8,3,5,5,2,8,2,8,1,NA,NA,1,1,NA,1,NA,NA,NA,NA,NA,NA,NA,NA,NA,NA,3,4,5,3,4,5,4,2,2,3,3,4,2,3,5,4,3,3,2,4,4,3,3,5,5,1,3,2,2,2,3,2,4,3,2,1,4,4,4,2,4,2,1,3,4,2,2,7,2,1,2,7,6,2,2,4,1,3,2,4,1,2,6,3,1,1,2,2,2,2,3,1,2,2,4,1,1,1,2,1,1,1,1,5,5,4,5,5,5,4,3,3,6,6,6,7,7,6,6,5,5,3,4,4,4,5,4,3,4,5,2,5,2,3,3,4,6,7,2,4,6,5,2,4,5,4,2,2,3,2,4,5,3,1,4,5,3,4,3,2,4,5,3,3,4,5,5,5,4,5,5,4,2,3,3,2,4,4,3,2,3,4,5,4,4,5,2,5,2,4,4,4,1,3,4,2,3,2,3
Oxford,1995,2,2,1,1,1.53,45,4,2,0,2,2,NA,1,2,35.4,36.9,36.15,51.75,-1.25,88,-2.222222222,08:32:34,5,1,2,1,NA,4,4,5,NA,2,2,8,3,2,3,2,8,1,NA,NA,3,1,NA,1,NA,NA,NA,NA,NA,NA,NA,NA,NA,NA,4,5,3,3,3,5,2,5,3,3,4,3,3,3,3,3,2,2,2,2,3,2,2,3,4,2,3,3,3,2,3,2,2,3,4,2,4,4,4,4,4,2,2,3,4,2,4,3,5,1,3,3,1,1,4,5,1,2,3,5,4,1,1,1,3,3,2,3,1,1,6,1,1,1,1,1,1,1,2,2,2,1,1,5,5,5,5,5,5,5,5,5,4,5,5,4,3,3,3,2,2,4,1,2,4,2,2,2,2,2,1,2,2,3,1,3,4,5,3,3,2,3,4,5,4,4,2,2,5,5,3,5,2,2,4,5,2,4,2,3,4,4,3,3,4,4,4,4,4,4,4,3,2,2,2,2,4,4,3,2,3,4,4,3,2,2,3,4,2,2,2,4,2,2,4,4,4,4,4
Oslo,1995,2,1,1,6,1.65,52,4,2,NA,NA,1,1,1,2,36.2,36.1,36.15,59.91270447,10.74609375,70,-2,10:44:27,4,1,2,1,NA,4,3,5,NA,6,4,6,5,2,1,2,5,1,NA,NA,1,1,NA,1,NA,NA,NA,NA,NA,NA,NA,NA,NA,NA,4,3,4,2,3,4,3,3,5,2,4,4,4,4,3,4,3,3,4,3,3,2,3,2,5,2,3,3,4,3,4,2,2,2,2,4,4,4,4,4,3,1,2,2,3,2,4,5,2,2,3,5,5,1,5,3,2,2,2,2,1,5,1,6,1,3,2,6,3,2,3,2,2,2,2,1,3,2,3,1,1,2,2,2,4,4,4,3,4,2,4,4,6,5,6,5,5,4,5,3,2,3,3,2,4,2,2,2,2,2,3,4,2,2,2,4,5,3,3,2,1,1,1,4,2,5,4,3,3,2,3,4,4,4,3,4,4,2,4,4,3,3,4,4,3,3,3,4,2,3,3,3,2,2,2,4,4,4,2,2,2,4,3,4,4,2,2,4,4,4,3,4,2,5,4,4,4,2,2
Oslo,1995,2,1,1,4,1.7,59,3,1,NA,0,2,NA,1,2,35.8,36.5,36.15,59.91670227,10.75,87,1,10:17:25,4,1,1,1,NA,4,4,4,2,8,3,7,5,1,NA,1,NA,2,1,1,1,1,NA,1,NA,NA,NA,NA,NA,NA,NA,NA,NA,NA,3,4,5,5,4,4,5,5,5,5,5,5,5,4,2,4,2,2,3,2,4,3,3,3,5,2,3,4,4,1,4,2,1,4,2,4,5,5,4,4,4,2,2,2,2,3,4,3,2,3,3,1,5,2,5,6,2,1,1,1,3,2,3,2,1,1,1,3,2,1,1,2,1,1,1,1,2,2,1,1,2,2,2,5,5,5,5,5,5,2,2,4,3,2,1,3,5,4,4,2,2,2,2,2,2,4,1,1,2,1,1,1,2,2,2,4,5,5,1,2,3,2,4,4,2,5,2,2,4,2,5,4,2,1,2,2,2,2,2,2,4,4,4,2,4,5,5,5,5,5,3,2,1,1,1,2,1,3,2,2,3,1,2,4,4,4,2,5,4,5,3,5,1,4,4,2,3,2,3
SMU,1995,2,1,2,7,1.56,46.5,2,2,0,0,2,NA,2,2,36.2,36.1,36.15,1.293106079,103.8558044,70,26,09:39:19,5,1,2,1,NA,4,4,5,NA,3,3,5,3,1,NA,2,8,1,NA,NA,1,1,NA,1,NA,NA,NA,NA,NA,NA,NA,NA,NA,NA,4,4,3,2,4,4,2,3,2,2,4,3,5,3,4,4,2,3,2,3,4,4,3,3,5,2,4,2,2,2,4,4,4,4,4,2,3,4,4,3,4,2,1,2,2,3,4,5,4,4,4,3,5,4,3,4,5,3,3,3,3,3,5,4,3,3,3,5,3,3,3,3,3,3,3,3,3,4,3,5,4,3,4,4,4,4,4,4,4,4,4,4,6,5,5,5,6,6,6,2,4,2,3,3,2,2,3,3,3,2,1,2,2,2,3,5,7,6,7,7,7,7,2,4,4,2,2,2,4,4,2,4,4,2,4,4,4,4,3,1,2,2,4,3,3,4,3,4,3,4,4,3,2,2,4,2,4,4,4,2,2,3,4,4,4,4,2,2,4,4,4,4,2,4,4,4,2,4,4
Oslo,1995,2,1,1,7,1.65,53,5,1,0,2,2,NA,1,2,35.9,36.4,36.15,59.91270447,10.74609375,87,-3,09:38:48,4,1,1,1,NA,4,4,4,1,4,4,8,4,1,NA,2,5,3,1,8,1,1,NA,1,NA,NA,NA,NA,NA,NA,NA,NA,NA,NA,3,4,4,4,2,3,4,4,2,3,3,3,4,2,3,4,2,1,3,2,3,2,2,4,5,2,4,3,4,3,4,4,2,4,2,5,4,4,4,4,2,2,3,3,2,2,4,1,1,1,1,1,1,1,1,1,1,1,1,1,1,1,4,3,1,1,1,1,1,1,1,1,1,7,1,1,1,1,1,1,1,1,1,5,5,5,5,5,3,2,4,4,3,5,5,5,6,5,4,4,3,1,3,3,4,4,1,1,3,1,2,1,2,3,2,4,5,6,2,5,3,4,1,2,2,5,4,5,2,2,4,3,2,1,2,3,5,3,4,3,3,3,3,3,3,4,4,5,4,4,4,3,1,1,1,4,5,4,3,4,3,2,3,4,4,5,1,4,3,4,3,5,2,5,5,5,5,5,3
METU,1995,2,1,1,7,1.62,46,3,2,NA,NA,1,15,1,2,36,36.3,36.15,39.91169739,32.84030151,69,6,10:58:19,3,2,4,1,NA,4,2,4,1,6,5,5,3,1,NA,2,8,1,NA,NA,1,1,NA,1,NA,NA,NA,NA,NA,NA,NA,NA,NA,NA,2,2,2,3,2,2,2,1,2,3,4,2,3,3,3,3,3,3,3,3,3,3,3,3,3,2,3,4,4,4,4,4,2,4,1,4,5,5,5,5,5,5,5,4,1,4,5,3,3,2,3,6,6,5,2,3,4,7,3,4,2,2,6,5,3,4,4,2,2,2,1,1,2,2,2,1,2,2,2,2,2,2,5,5,5,5,5,5,4,2,5,3,6,5,5,4,4,4,4,3,3,1,4,3,1,4,4,4,3,2,2,2,3,4,1,5,8,6,1,5,1,2,2,4,2,4,4,4,4,2,3,4,1,2,1,3,5,1,5,2,2,4,4,4,4,3,4,5,4,2,4,4,2,2,2,2,3,2,2,2,2,2,2,4,2,4,2,4,2,4,3,4,2,4,4,3,4,2,3
Oslo,1995,2,1,2,6,1.75,60,2,2,2,1,2,NA,1,2,36.2,36.1,36.15,59.91270447,10.74609375,78,-1,10:58:19,4,1,2,1,NA,4,4,5,NA,4,2,5,5,1,NA,2,8,1,NA,NA,1,1,NA,1,NA,NA,NA,NA,NA,NA,NA,NA,NA,NA,2,2,3,2,2,4,1,4,3,3,4,2,5,4,2,4,2,2,2,3,4,2,2,4,5,2,4,4,4,2,4,3,4,4,4,3,4,4,4,4,4,2,2,2,4,3,4,4,3,5,5,5,4,2,5,6,2,5,3,3,1,5,3,3,2,5,3,6,6,5,5,5,6,6,5,4,3,5,5,5,6,4,5,4,4,4,4,4,3,3,2,4,3,5,4,5,3,3,2,2,1,1,1,2,3,3,2,1,2,1,2,2,1,3,2,4,6,3,2,2,4,4,2,2,2,5,2,1,1,2,5,4,4,1,2,5,5,3,5,4,1,2,4,3,4,2,2,3,4,4,3,4,3,4,3,4,4,4,4,1,3,3,4,2,3,2,2,4,4,4,2,4,2,2,2,4,4,1,5
SMU,1995,2,1,1,4,1.57,47,3,2,2,0,2,NA,1,2,36.1,36.2,36.15,1.293106079,103.8558044,70,26,09:38:17,5,1,2,1,NA,4,4,4,2,1,NA,4,3,1,NA,2,8,3,1,5,2,2,6,1,NA,NA,NA,NA,NA,NA,NA,NA,NA,NA,2,4,1,4,4,5,1,4,2,3,4,5,4,4,5,5,4,3,2,3,4,4,3,5,5,3,3,4,4,2,5,3,4,5,2,4,4,4,4,4,4,2,2,4,2,3,4,7,6,7,6,4,7,6,4,6,5,6,4,4,2,4,7,6,5,3,2,4,2,3,4,2,3,3,2,3,2,2,2,4,4,3,6,4,2,4,4,3,3,2,2,3,4,4,5,5,3,3,4,5,4,4,3,5,5,4,2,2,4,5,2,3,2,3,2,3,4,3,2,3,2,2,2,4,4,2,1,4,1,2,2,5,3,2,5,5,4,4,4,4,3,2,3,4,4,5,4,5,4,3,5,2,1,1,3,2,2,4,4,3,2,3,4,4,4,4,2,3,4,4,3,3,2,3,4,3,3,2,2
UCSB,1995,2,1,2,4,1.651,68.18181818,2,1,0,0,2,NA,1,2,36.05555556,36.33333333,36.19444444,34.4329071,-119.8370972,81,12.22222222,11:16:00,5,1,2,1,NA,4,4,5,NA,1,NA,4,4,1,NA,2,8,1,NA,NA,8,1,NA,2,Greek Organization,NA,NA,NA,NA,100,NA,NA,NA,NA,4,5,4,5,4,4,4,2,2,5,5,5,4,1,2,5,1,1,1,3,3,2,1,1,4,2,2,1,4,2,4,1,1,1,1,1,1,1,1,4,1,1,1,1,1,1,4,1,1,1,1,1,2,1,2,1,2,1,1,2,1,1,1,1,2,2,2,2,1,2,1,6,2,2,1,3,3,2,1,2,2,1,2,5,5,5,5,5,5,5,5,5,4,4,5,3,6,5,6,1,2,1,2,2,1,4,2,2,1,2,2,1,2,4,2,3,4,4,4,4,4,4,4,4,5,1,1,1,5,4,1,5,5,5,5,5,1,5,1,1,3,2,4,4,4,5,2,4,3,4,2,2,2,2,3,1,4,5,4,1,1,2,5,1,5,3,5,4,4,2,4,1,2,1,1,1,1,4,1
VCU,1995,2,1,2,7,1.651,73.63636364,3,2,1,4,2,NA,1,2,35.88888889,36.5,36.19444444,NA,NA,85,12.77777778,10:55:46,5,1,2,1,NA,4,4,5,NA,2,2,8,8,1,NA,2,7,3,1,8,1,2,6,2,Zeta Tau Alpha,Be the Match,College Republicans,NA,NA,20,5,4,NA,NA,3,1,4,2,2,4,1,3,3,1,4,4,3,2,2,4,4,3,3,3,3,3,4,3,4,3,3,3,4,4,4,2,2,3,4,4,4,3,4,4,1,1,1,1,1,1,1,7,4,3,7,2,4,1,7,7,5,7,4,7,1,7,2,7,1,4,4,7,4,4,5,5,4,6,6,4,7,5,7,6,7,4,2,4,4,4,4,4,4,4,4,4,4,6,6,6,6,6,6,1,1,1,1,3,1,1,1,1,1,1,4,5,5,1,5,3,4,4,2,2,3,2,3,5,5,1,1,2,4,4,2,5,1,5,5,5,1,4,3,3,1,1,4,5,5,1,3,5,5,4,1,1,1,1,1,1,1,3,2,2,3,4,1,5,2,1,5,5,5,1,4,1,4,4,4,1,1,3,5
Serbia,1995,2,1,2,7,1.76,95,3,2,0,0,2,NA,1,2,36.1,36.3,36.2,44.81860352,20.46809387,65,2,11:20:34,6,1,2,1,NA,4,4,5,NA,8,8,6,4,1,NA,2,8,1,NA,NA,1,2,4,1,NA,NA,NA,NA,NA,NA,NA,NA,NA,NA,5,5,4,5,5,5,4,4,5,5,5,4,5,1,3,4,2,1,1,2,2,2,2,2,5,2,3,1,1,1,1,1,1,1,1,1,1,1,1,1,1,1,1,1,1,1,1,1,1,1,1,1,1,1,1,1,1,1,1,1,2,1,1,1,1,4,4,7,4,5,5,2,4,5,3,4,4,4,4,7,7,NA,3,3,3,4,4,4,2,2,3,3,1,2,2,2,3,2,2,1,1,1,1,1,1,2,1,2,1,1,2,2,2,1,1,5,6,6,1,7,1,7,3,3,5,2,1,1,1,1,1,5,2,1,3,2,4,4,5,4,4,5,5,2,2,2,1,1,4,3,2,1,4,1,1,1,1,5,3,5,3,2,3,5,2,1,4,4,2,1,1,4,3,5,2,3,2,3,5
SMU,1995,2,1,2,7,1.58,52,4,2,4,0,2,NA,1,2,36.3,36.1,36.2,1.293106079,103.8558044,70,27,09:39:21,5,1,2,1,NA,4,4,5,NA,3,1,8,4,1,NA,2,8,1,NA,NA,1,2,3,1,NA,NA,NA,NA,NA,NA,NA,NA,NA,NA,2,2,2,4,2,4,4,3,2,4,4,2,2,3,2,4,2,4,2,4,2,2,2,2,4,3,4,1,1,1,1,1,4,1,2,1,3,1,1,1,1,1,1,1,1,3,1,6,6,3,6,6,6,3,6,5,3,2,3,3,3,6,6,6,3,3,2,6,2,6,3,3,2,4,2,2,4,2,6,2,2,2,4,5,5,5,5,5,3,3,5,5,6,5,4,4,5,4,4,2,4,2,2,2,2,2,3,2,2,2,2,3,2,2,2,4,3,4,3,3,3,3,2,4,4,2,1,3,4,2,4,4,2,2,5,5,5,5,2,2,2,2,5,5,4,5,3,4,4,4,4,4,2,2,2,4,2,2,2,4,3,4,2,4,2,4,4,4,4,2,4,4,2,4,4,4,4,2,4
Oxford,1995,2,1,2,4,1.65,49,2,2,0,0,2,NA,1,2,35.8,36.6,36.2,51.75,-1.25,88,-2.222222222,08:50:56,5,1,2,1,NA,4,4,3,1,1,NA,7,6,2,1,2,8,1,NA,NA,1,1,NA,1,NA,NA,NA,NA,NA,NA,NA,NA,NA,NA,3,2,1,4,5,1,2,3,2,3,4,5,4,4,3,4,3,3,2,3,3,2,3,2,5,2,4,2,2,3,2,4,2,1,2,1,4,3,2,3,1,1,2,1,1,2,2,6,2,4,3,6,3,2,6,3,2,4,2,4,2,5,6,5,2,5,4,5,4,4,5,5,3,5,2,3,3,2,6,3,4,4,4,5,5,5,5,5,3,4,4,3,3,5,4,4,3,3,3,2,2,3,2,2,1,2,2,4,2,1,3,2,3,3,3,2,2,2,1,1,2,2,4,4,4,2,1,1,3,4,2,5,4,2,5,3,3,4,4,4,2,3,5,4,2,3,2,3,3,3,3,3,2,2,3,2,5,4,2,2,2,4,5,4,3,2,5,3,4,2,1,2,5,3,2,2,3,1,5
SMU,1995,2,1,1,4,1.68,53,4,2,4,0,2,NA,1,2,36.2,36.2,36.2,1.293106079,103.8558044,71,26,10:59:19,5,1,2,1,NA,4,4,5,NA,7,3,8,7,1,NA,2,5,1,NA,NA,5,1,NA,1,NA,NA,NA,NA,NA,NA,NA,NA,NA,NA,4,3,3,4,4,4,3,3,4,4,3,4,4,2,3,2,3,3,2,2,2,2,2,3,4,2,2,3,4,3,4,2,2,3,2,2,4,4,4,4,4,2,2,3,3,3,4,2,2,2,2,4,3,2,2,2,2,2,2,2,2,2,4,4,2,2,2,3,2,2,2,2,2,2,2,3,2,2,2,3,3,2,2,4,4,4,4,5,4,2,4,4,4,5,5,5,5,5,5,2,2,2,2,2,2,2,2,2,2,2,2,2,2,3,2,3,4,4,2,2,2,3,4,2,4,3,2,4,3,3,3,4,2,2,3,2,2,4,2,3,3,4,3,2,4,3,3,4,4,4,4,4,1,1,2,3,3,4,4,3,2,4,3,3,4,3,2,4,4,4,4,4,2,3,3,3,3,3,2
Serbia,1995,2,1,1,6,1.59,50,3,2,0,2,1,15,1,2,36.2,36.2,36.2,45.3605957,19.59170532,44,12,11:36:45,6,1,2,1,NA,4,2,5,NA,4,4,4,4,1,NA,2,6,1,NA,NA,2,1,NA,1,NA,NA,NA,NA,NA,NA,NA,NA,NA,NA,3,3,2,4,4,4,2,2,2,3,3,4,3,3,3,4,2,4,2,4,3,2,2,3,5,4,4,3,3,2,4,2,3,3,3,4,5,4,4,3,4,2,3,3,2,2,4,5,3,3,5,8,2,5,5,4,1,5,2,2,1,3,8,5,1,1,1,2,1,1,1,1,3,NA,1,1,NA,NA,1,3,4,1,NA,5,5,5,5,5,4,4,4,4,6,3,5,3,6,6,6,2,2,1,3,3,2,2,2,2,2,3,2,2,2,2,2,5,7,6,5,6,5,6,3,1,3,5,2,2,2,1,4,5,4,5,2,2,4,5,4,5,3,5,4,3,5,4,1,2,1,3,4,4,3,4,1,2,4,3,3,3,3,3,2,5,2,2,2,4,4,5,4,4,2,5,5,3,2,1,5
Tsinghua,1995,2,1,1,7,1.6,50,3,2,0,0,2,0,1,2,36.2,36.2,36.2,NA,NA,70,14,13:25:56,7,3,2,1,0,4,4,5,0,2,1,6,5,1,1,2,4,1,1,3,1,2,1,2,Êé·¨Ð­»á,ÇàÄêÖ¾Ô¸ÕßÐ­»á,NA,NA,NA,1,3,0,0,0,3,3,3,4,5,5,1,4,3,4,4,2,2,1,2,3,1,2,1,2,3,1,3,1,5,3,2,3,4,2,3,3,4,2,4,3,4,4,3,3,3,3,2,2,2,2,2,2,3,2,2,6,2,4,5,1,2,1,2,3,2,5,2,5,2,3,2,2,5,2,6,3,2,2,2,2,5,2,6,3,5,3,3,4,4,4,4,4,5,1,5,5,5,4,4,6,5,5,4,2,2,4,3,3,2,3,2,4,2,2,4,3,2,3,2,3,5,4,2,2,2,2,4,4,2,4,2,4,2,2,4,4,3,4,2,4,4,2,3,4,1,1,2,1,3,1,1,4,5,2,4,4,2,2,2,2,2,2,3,2,2,2,4,4,4,3,2,4,4,2,2,4,2,3,4,3,4,2,3
Tsinghua,1995,2,1,2,1,1.58,50,2,2,2,0,2,0,1,2,36.2,36.2,36.2,30.58009338,114.273407,86,19,21:54:35,7,3,2,1,0,4,4,5,0,1,0,8,6,1,1,2,4,3,1,2,1,2,8,1,±ÈÈü×é¶Ó,NA,NA,NA,NA,4,NA,NA,NA,NA,2,2,2,2,4,3,1,3,2,3,3,2,2,2,3,4,3,3,3,3,3,3,3,3,3,4,2,2,2,3,4,4,4,3,4,4,4,4,4,4,4,3,4,4,3,4,4,4,4,4,5,4,4,5,4,4,3,4,4,4,3,4,5,5,4,5,3,4,4,5,5,4,4,4,3,4,5,4,4,4,3,3,4,4,4,4,4,4,4,4,4,4,3,4,4,4,4,4,4,3,3,2,3,2,3,3,4,2,2,2,3,3,2,3,3,5,7,7,7,7,7,7,4,4,4,4,2,2,4,4,4,4,3,3,3,4,4,4,4,4,3,2,3,3,3,3,2,3,4,3,3,3,3,3,3,3,2,3,3,3,4,2,3,2,3,3,3,3,4,2,2,4,3,3,4,4,4,4,4
Serbia,1995,2,1,2,6,1.69,52,3,1,0,0,2,NA,1,2,36.2,36.2,36.2,44.81860352,20.46809387,56,6,11:01:43,6,1,2,1,NA,2,2,5,NA,3,3,4,4,1,NA,2,8,1,NA,NA,2,1,NA,1,NA,NA,NA,NA,NA,NA,NA,NA,NA,NA,3,3,1,2,3,4,1,2,2,1,2,3,4,4,5,4,3,3,4,3,3,3,3,4,4,3,4,4,4,4,4,4,4,2,2,4,4,4,4,4,4,2,4,4,1,2,4,8,5,5,8,8,8,5,8,5,2,3,4,4,4,8,4,7,2,5,3,2,NA,3,5,5,6,6,NA,NA,3,NA,5,NA,NA,3,6,5,5,5,5,5,3,2,2,1,3,2,4,2,3,2,2,2,2,1,2,2,1,3,2,2,2,2,1,1,1,2,1,3,2,1,1,2,2,1,2,2,2,5,4,4,2,3,4,2,2,1,2,2,4,4,4,4,4,3,4,2,4,4,2,2,1,2,4,4,2,2,2,4,4,2,4,2,2,4,5,2,4,2,2,4,5,2,2,4,4,4,2,2,4,1,4
VCU,1995,2,3,2,4,1.7526,81.81818182,3,2,6,0,2,NA,1,2,36.16666667,36.28,36.22333333,NA,NA,74,8.888888889,10:36:15,5,1,2,1,NA,4,4,5,NA,3,1,6,6,1,NA,2,6,3,1,1,1,1,NA,1,NA,NA,NA,NA,NA,NA,NA,NA,NA,NA,2,3,2,3,2,2,3,1,2,2,2,3,2,2,3,4,2,3,2,3,4,3,3,3,3,3,3,3,4,4,4,2,2,1,4,4,4,4,4,4,2,2,3,2,2,5,4,3,3,5,5,5,5,6,5,6,3,4,5,5,5,5,2,6,2,5,3,5,5,5,6,5,5,3,3,2,3,5,6,5,3,2,3,4,2,4,2,2,2,2,3,3,6,4,4,4,5,5,5,2,4,1,3,2,2,2,2,2,4,4,4,4,2,2,2,5,8,5,4,4,3,4,2,4,4,4,2,2,4,2,2,4,4,4,4,4,3,4,2,4,2,2,2,4,5,4,4,4,3,5,4,2,2,4,4,1,4,2,2,2,2,2,2,2,4,4,4,4,3,5,4,4,1,4,4,3,2,2,1
METU,1995,2,1,1,7,1.75,70,4,2,NA,NA,1,5,1,2,36.3,36.2,36.25,39.91169739,32.84030151,69,6,11:11:15,3,2,2,1,NA,4,2,5,NA,3,2,4,3,1,NA,2,8,1,NA,NA,1,1,NA,2,??renci toplulu?u,NA,NA,NA,NA,3,NA,NA,NA,NA,4,4,4,5,3,2,4,2,4,4,4,3,2,3,4,4,2,2,2,2,3,3,2,2,5,3,2,2,3,2,4,4,1,2,4,4,2,4,2,5,3,3,4,1,4,3,1,6,5,2,2,3,6,6,2,6,6,5,4,2,2,1,7,1,2,3,2,7,2,2,1,2,2,2,1,1,2,2,2,7,7,2,2,5,5,5,5,5,5,5,5,5,7,7,6,5,6,4,6,2,2,1,3,2,1,1,3,1,1,3,2,2,2,2,4,4,5,3,2,2,3,3,2,2,5,4,1,1,5,1,1,5,5,5,5,5,3,4,3,1,3,2,3,3,5,5,5,5,5,2,5,5,1,2,1,1,5,5,5,5,1,1,5,5,1,5,3,3,5,5,5,5,2,5,3,2,3,4,5
Serbia,1995,2,1,1,7,1.56,50,3,2,1,1,2,NA,1,2,36.1,36.4,36.25,44.81860352,20.46809387,95,6,10:59:41,6,1,2,1,NA,4,4,5,NA,2,2,5,5,1,NA,2,7,1,NA,NA,1,1,NA,1,NA,NA,NA,NA,NA,NA,NA,NA,NA,NA,4,2,4,4,4,5,2,1,2,3,4,3,2,4,4,3,2,3,2,2,4,3,3,5,4,3,3,3,2,2,3,2,4,3,4,4,4,2,4,2,3,2,2,2,2,2,3,5,5,8,5,5,3,5,5,5,3,6,3,8,8,5,5,8,2,2,NA,2,NA,2,5,5,NA,NA,1,1,NA,1,5,4,NA,1,4,5,5,5,5,5,5,5,4,5,2,4,5,4,4,3,4,2,2,2,3,2,2,4,2,1,3,2,2,1,1,2,1,5,7,6,4,3,3,5,2,2,2,5,4,4,2,2,2,3,2,2,4,4,4,4,3,5,5,4,3,3,4,3,2,2,1,3,2,2,2,4,2,4,4,4,4,2,2,4,4,2,4,4,2,4,4,4,4,4,2,4,4,4,3,2,5
SMU,1995,2,1,2,7,1.6,47,4,2,2,0,2,NA,1,2,36.1,36.4,36.25,1.293106079,103.8558044,70,26,10:33:57,5,1,2,1,NA,4,4,5,NA,1,NA,5,5,1,NA,2,8,1,NA,NA,1,1,NA,1,NA,NA,NA,NA,NA,NA,NA,NA,NA,NA,2,1,2,4,3,3,1,2,1,3,4,2,2,4,3,3,2,3,2,2,3,2,3,2,4,4,3,4,4,1,4,4,4,3,2,2,4,3,4,2,4,2,4,3,3,2,4,4,4,4,4,6,5,4,4,3,5,2,4,4,2,6,5,5,3,6,3,6,3,5,5,5,3,3,3,3,3,3,4,3,3,3,3,5,4,4,5,5,4,4,4,4,4,5,3,4,5,5,5,3,4,2,3,1,4,4,5,3,3,2,2,4,2,3,3,5,5,4,2,2,2,3,3,4,5,2,2,3,4,4,3,5,4,2,5,5,5,4,4,3,3,4,4,4,4,4,4,4,4,4,3,3,3,4,3,2,2,4,4,4,3,3,4,4,4,2,2,3,4,2,2,4,4,4,3,4,3,2,4
METU,1995,1,1,1,6,1.72,74,4,2,7,0,1,5,1,2,36.2,36.3,36.25,39.91169739,32.84030151,60,9,10:56:55,3,2,2,1,NA,4,4,4,1,5,3,8,6,1,NA,2,6,3,1,2,1,1,NA,2,Sosyal Demokrasi Toplulu?u,THBT,NA,NA,NA,2,3,NA,NA,NA,5,5,3,4,4,4,5,3,4,5,3,4,2,1,3,1,4,2,2,2,2,2,2,4,2,4,2,4,4,4,2,3,1,2,4,5,4,4,4,4,4,2,2,1,2,2,4,5,2,3,3,6,3,5,2,6,1,5,1,5,1,2,7,1,4,2,2,6,2,1,2,1,2,1,2,2,1,2,1,3,3,3,3,2,2,2,4,2,1,2,1,1,4,5,4,5,5,5,4,1,2,1,2,2,1,2,2,2,1,3,1,2,2,2,4,4,4,3,2,4,4,2,5,2,5,4,1,1,4,5,1,5,4,5,5,5,1,4,3,4,2,4,3,5,4,4,5,5,3,2,4,3,1,4,2,1,4,5,4,4,2,5,2,4,5,1,4,4,4,1,1,4,1,4,5,3,1,1,1
Oslo,1995,2,1,1,7,1.72,65,3,2,1,3,2,NA,1,2,36.3,36.2,36.25,59.91670227,10.75,87,1,10:36:41,4,1,1,1,NA,4,4,4,1,5,3,5,4,2,1,2,3,3,1,1,1,1,NA,2,Bibelgruppe,NA,NA,NA,NA,2,0,0,0,0,2,3,3,4,4,3,3,4,2,2,4,3,3,2,2,2,2,2,2,2,3,3,1,2,4,2,2,3,3,2,4,3,3,4,4,4,4,4,4,5,3,3,3,3,2,2,3,2,2,1,3,6,2,5,2,2,2,3,3,1,2,2,4,5,2,2,1,3,2,2,2,2,2,6,2,1,1,1,2,2,2,1,3,4,4,4,4,4,3,4,4,4,5,1,3,2,4,3,4,2,3,2,2,2,2,4,2,1,2,3,2,2,2,3,2,4,5,5,2,3,4,4,3,3,2,4,4,3,4,3,3,4,4,1,2,3,3,2,2,3,4,4,4,2,4,4,4,4,3,4,4,4,2,2,1,4,4,3,3,2,2,3,4,4,4,3,2,4,4,4,4,4,2,2,4,4,3,2,2
Tsinghua,1995,2,1,1,7,1.55,51.5,4,2,0,0,2,0,1,2,36.4,36.1,36.25,30.66670227,104.0667114,69,8,11:12:02,7,3,2,1,0,4,4,4,1,3,3,3,2,1,1,2,8,1,1,3,3,2,1,1,NA,NA,NA,NA,NA,NA,NA,NA,NA,NA,5,4,4,5,3,4,1,3,4,5,5,3,5,3,3,4,2,2,2,3,3,2,2,3,4,3,3,4,4,2,3,3,4,4,3,3,4,3,2,2,2,3,1,3,2,1,2,6,5,6,6,5,6,6,4,4,5,3,6,4,4,6,4,4,5,6,3,4,2,4,5,6,3,3,2,2,3,3,4,2,2,3,4,4,4,3,4,5,5,4,4,4,3,2,4,3,3,3,3,4,2,4,2,4,5,4,4,4,5,4,2,3,1,3,1,3,2,2,2,2,2,2,2,4,4,4,3,4,2,3,4,4,2,1,4,2,2,2,3,2,3,3,4,4,4,4,4,4,4,4,4,4,4,4,3,4,2,4,4,4,3,4,4,4,4,4,4,4,4,4,4,4,4,2,2,3,4,4,3
VCU,1995,2,1,2,7,1.6002,81.81818182,3,1,6,0,2,NA,1,2,36.16666667,36.33333333,36.25,37.44259644,-77.67199707,58,13.88888889,10:59:59,5,1,2,1,NA,4,4,5,NA,8,3,3,1,2,5,2,1,3,1,6,1,1,NA,1,NA,NA,NA,NA,NA,NA,NA,NA,NA,NA,3,4,4,5,4,3,4,3,3,2,3,4,5,2,3,4,3,2,2,3,2,2,3,3,4,4,2,4,4,2,4,4,2,4,4,4,4,4,3,4,4,4,3,4,2,4,4,2,2,2,2,2,5,3,2,3,1,2,4,3,3,5,2,5,3,2,3,5,5,3,3,2,4,4,4,2,4,3,3,5,5,3,4,4,4,4,4,4,4,3,4,4,3,4,3,3,3,3,3,2,2,2,2,2,2,4,2,2,3,2,3,3,2,2,2,4,4,2,2,2,4,4,2,4,4,4,2,2,4,3,4,4,4,2,4,4,4,4,4,4,2,2,4,4,3,2,2,3,4,4,3,4,3,3,3,3,4,4,4,3,4,4,4,4,3,2,3,4,4,3,2,3,2,4,2,4,2,2,4
METU,1995,1,1,1,4,1.84,102,3,1,6,4,2,NA,1,2,36.2,36.3,36.25,39.91169739,32.84030151,60,9,09:41:35,3,2,1,1,NA,4,2,4,1,3,3,6,4,1,NA,2,8,1,NA,NA,1,1,NA,1,NA,NA,NA,NA,NA,NA,NA,NA,NA,NA,4,4,4,2,2,3,2,3,2,3,4,2,2,3,2,2,3,4,2,2,2,4,3,3,3,2,2,4,4,4,4,4,4,3,2,3,3,3,1,2,1,1,1,1,1,1,2,2,4,4,2,5,3,4,4,2,4,3,3,3,2,2,3,3,3,5,3,3,3,2,3,3,3,3,3,2,3,2,2,4,5,3,3,4,4,4,4,4,4,4,4,4,5,4,3,4,3,3,3,2,4,2,3,3,3,4,3,3,3,2,2,3,3,3,3,2,2,2,2,2,2,2,3,3,4,4,4,3,3,3,3,4,2,3,4,4,4,3,2,4,4,4,4,4,3,4,4,4,4,3,4,4,2,2,3,3,2,5,4,4,3,3,5,4,4,4,2,4,3,4,4,3,2,3,3,3,3,2,2
SMU,1995,2,1,2,6,1.55,52,4,2,0,5,2,NA,1,2,36.1,36.4,36.25,1.293106079,103.8558044,71,26,11:10:27,5,1,2,1,NA,4,1,5,NA,5,4,5,5,1,NA,2,8,1,NA,NA,1,1,NA,2,International Connection,NA,NA,NA,NA,10,NA,NA,NA,NA,2,2,4,3,2,4,2,3,2,2,3,4,3,5,4,4,3,3,3,3,4,2,4,4,4,2,4,4,5,2,4,4,2,5,3,4,3,2,2,3,2,3,4,3,2,4,2,6,2,6,2,6,5,6,6,5,2,2,6,3,2,2,6,6,2,5,2,2,2,2,2,6,3,3,3,2,6,2,2,2,2,2,5,5,5,5,5,5,5,4,4,4,4,4,5,5,5,5,5,3,4,2,4,2,2,2,2,2,4,2,2,2,2,4,4,1,2,5,3,2,2,2,2,4,4,2,1,3,2,2,3,4,2,1,4,4,4,4,3,3,2,2,4,3,3,2,2,4,4,3,3,3,3,3,3,2,2,2,4,2,4,4,4,4,4,2,3,3,4,2,2,2,2,3,2,3,3,2,2
METU,1995,2,1,1,6,1.65,53,4,2,10,4,2,NA,1,2,36.2,36.3,36.25,39.91169739,32.84030151,69,6,10:36:43,3,2,2,1,NA,4,4,4,1,8,8,8,7,1,NA,2,6,1,NA,NA,8,1,NA,1,NA,NA,NA,NA,NA,NA,NA,NA,NA,NA,4,5,3,4,2,3,2,3,2,4,5,2,3,2,2,3,2,2,2,2,2,2,2,3,4,2,3,2,4,4,4,4,3,4,4,4,4,4,4,4,4,2,2,2,4,4,4,6,1,1,2,6,2,1,2,1,1,5,1,1,1,1,5,3,1,2,2,2,2,5,1,2,2,2,2,1,6,1,2,2,2,1,1,5,5,5,5,5,5,5,5,5,5,6,6,6,5,4,4,2,2,2,2,2,2,2,2,3,1,2,2,4,2,3,2,4,5,5,2,4,2,1,4,1,4,4,2,2,4,3,2,5,4,2,4,4,4,4,2,2,3,4,4,2,4,4,4,5,5,4,5,5,1,1,4,3,4,4,5,2,2,4,3,4,4,4,2,4,2,4,4,4,2,4,4,4,3,4,2
Tsinghua,1995,2,1,2,7,1.58,46,3,2,3,0,2,0,1,2,36.3,36.2,36.25,39.92889404,116.3883057,22,8,09:43:29,7,3,2,1,0,4,4,5,0,3,1,8,5,1,1,2,8,1,1,1,1,2,1,2,NA,NA,NA,NA,NA,NA,NA,NA,NA,NA,4,3,4,4,4,4,3,4,3,5,5,4,3,4,4,5,3,2,2,3,3,4,3,1,5,3,4,4,4,2,5,5,5,4,5,4,4,2,4,3,2,2,2,3,2,2,3,7,4,4,5,4,5,4,4,6,6,5,2,5,1,5,7,5,3,1,1,1,2,2,4,1,3,3,2,1,2,1,3,1,1,1,2,4,4,4,4,4,5,5,5,4,7,1,5,7,7,7,7,2,1,4,3,2,4,2,3,2,2,1,2,2,2,3,2,4,5,4,4,4,2,2,1,5,5,5,2,5,4,2,5,5,3,1,3,5,5,2,4,5,1,2,3,5,4,5,3,5,3,2,3,2,1,3,2,4,3,2,2,1,1,2,1,1,4,1,1,4,4,2,4,3,1,3,5,2,2,1,5
SMU,1995,2,1,1,7,1.62,45,2,2,1,0,2,NA,1,2,36.4,36.1,36.25,1.350799561,103.8707886,79,26,10:12:47,5,1,2,1,NA,4,2,5,NA,2,2,6,6,2,1,2,8,1,NA,NA,2,2,8,1,NA,NA,NA,NA,NA,NA,NA,NA,NA,NA,2,1,2,5,2,2,2,1,2,2,3,3,5,2,2,4,2,2,1,2,2,2,2,2,4,2,1,5,5,5,5,5,5,5,5,5,5,4,5,4,4,4,2,2,2,4,4,2,2,2,2,3,3,1,2,3,2,2,1,5,3,5,1,2,1,2,2,6,2,5,2,2,2,5,1,1,1,2,5,2,2,2,2,5,5,5,5,5,5,4,5,4,5,5,5,5,5,5,5,2,2,2,2,2,2,2,2,2,2,2,4,2,1,1,1,5,6,6,5,5,6,6,1,4,4,4,1,4,4,4,4,5,4,1,1,4,4,4,1,4,1,1,5,5,4,4,2,5,4,4,5,4,1,1,2,1,1,1,2,4,4,2,3,4,4,4,2,3,4,4,5,4,2,2,2,2,2,2,2
Kassel,1995,2,1,1,6,1.78,70,3,2,NA,NA,2,NA,1,2,36.29,36.28,36.285,51.33599854,9.44569397,99,3,09:47:52,1,1,1,1,NA,4,1,4,1,8,2,5,2,1,NA,2,8,1,NA,NA,1,1,NA,2,Fachschaftsrat Psychologie,-,-,-,-,5,NA,NA,NA,NA,2,3,2,4,2,4,3,3,4,4,4,2,5,3,3,3,2,2,1,2,3,2,2,3,4,2,2,4,4,2,4,3,1,3,2,4,2,5,2,5,2,2,3,2,2,3,2,4,1,2,3,5,2,4,3,3,3,2,2,1,1,2,2,2,1,1,1,5,1,2,1,3,2,2,2,1,2,3,2,3,4,3,2,4,4,3,4,4,3,2,4,3,5,4,5,5,4,4,4,1,2,1,2,2,1,2,3,2,2,3,1,2,1,2,1,5,4,5,4,4,2,2,1,2,1,4,4,3,2,2,5,3,2,1,1,3,4,1,4,3,2,4,4,4,3,3,3,5,2,2,5,3,1,3,2,4,3,4,4,2,2,2,2,4,3,2,4,3,5,3,2,3,3,4,3,4,3,2,4
Serbia,1995,1,1,2,3,1.77,72,5,2,0,0,2,NA,1,2,36.3,36.3,36.3,44.97639465,19.61219788,58,4,11:15:23,6,1,2,1,NA,4,4,5,NA,3,2,5,4,2,1,2,8,1,NA,NA,3,1,NA,1,NA,NA,NA,NA,NA,NA,NA,NA,NA,NA,5,5,5,4,4,4,5,5,5,4,5,3,4,1,4,4,1,1,1,2,2,2,2,5,4,1,3,1,1,1,1,1,1,1,1,1,1,2,2,1,3,1,1,1,2,4,1,2,2,1,5,4,2,8,2,NA,2,NA,4,2,1,2,4,2,2,7,5,7,4,5,3,2,NA,5,6,5,5,6,3,7,7,1,4,5,4,5,5,5,2,3,4,4,5,2,5,5,2,3,2,3,4,1,4,1,1,3,4,5,1,2,2,1,4,5,5,1,1,1,1,1,1,1,5,3,2,5,5,1,5,5,1,1,1,1,2,3,4,4,4,2,2,4,3,3,1,1,1,1,4,1,3,1,1,1,2,1,5,4,5,5,2,2,5,5,4,1,5,3,1,1,4,1,4,1,1,1,1,5,1
Serbia,1995,2,1,2,7,1.7,66,3,2,0,0,2,NA,1,2,36.3,36.3,36.3,44.81860352,20.46809387,58,4,09:59:47,6,1,2,1,NA,4,4,5,NA,7,4,5,5,1,NA,2,8,1,NA,NA,4,1,NA,1,NA,NA,NA,NA,NA,NA,NA,NA,NA,NA,5,4,4,5,4,4,2,4,3,3,4,4,3,2,4,4,3,2,2,2,3,3,2,3,5,2,4,3,2,1,1,1,1,2,1,2,4,3,4,2,4,2,2,1,3,1,4,3,3,4,4,3,5,4,4,6,2,6,2,2,2,2,2,8,2,3,3,5,3,4,4,4,3,3,NA,3,NA,3,2,5,4,3,NA,4,5,4,5,5,4,3,3,4,5,5,6,5,3,4,3,3,2,1,2,1,2,2,2,3,1,2,3,2,2,2,2,4,5,6,2,5,5,5,2,4,4,3,1,2,2,3,2,5,3,3,4,3,3,2,5,4,4,4,4,4,4,3,1,1,3,4,2,3,4,3,2,2,4,4,4,2,2,3,3,5,4,3,3,4,4,2,4,4,3,4,4,4,2,3,2
Serbia,1995,2,1,1,6,1.63,56.3,3,2,1,0,2,NA,1,2,36.2,36.4,36.3,44.81860352,20.46809387,58,4,09:55:26,6,1,2,1,NA,1,NA,4,1,3,3,6,7,1,NA,2,8,1,NA,NA,2,1,NA,1,NA,NA,NA,NA,NA,NA,NA,NA,NA,NA,4,1,2,5,2,3,1,2,2,2,2,3,3,3,3,5,2,2,2,3,4,2,2,5,5,2,3,2,2,3,2,1,2,3,1,4,2,3,2,3,2,2,2,4,4,3,2,3,2,1,2,4,2,5,1,NA,2,6,1,4,2,2,1,3,1,1,NA,5,NA,2,2,2,NA,NA,NA,1,1,NA,2,7,6,1,1,3,2,4,3,1,2,3,3,2,4,4,3,2,5,4,4,2,2,2,2,1,2,2,2,2,2,2,2,2,1,2,1,4,5,6,1,5,4,5,1,3,2,5,4,5,3,2,4,3,3,2,2,2,5,5,4,4,3,5,3,3,4,3,1,3,1,3,4,5,2,4,2,2,2,4,2,5,4,1,2,3,2,3,2,4,4,4,3,3,3,5,3,5,4,3,2
METU,1995,1,1,1,6,1.84,76,4,2,4,0,2,NA,1,2,36.6,36,36.3,39.91169739,32.84030151,64,6,11:14:11,3,2,2,1,NA,4,2,4,1,8,3,4,3,1,NA,2,8,1,NA,NA,1,1,NA,2,ODT? Robot Toplulu?u,NA,NA,NA,NA,9,NA,NA,NA,NA,4,5,4,3,3,3,4,1,4,4,4,3,4,2,3,3,2,2,2,2,1,2,2,1,4,2,1,2,4,1,2,2,2,3,1,4,2,2,2,1,1,2,3,2,2,1,2,2,1,1,1,5,2,1,1,2,2,2,4,2,2,1,3,2,1,1,1,2,1,3,1,1,2,1,2,1,3,2,2,2,1,1,3,4,3,3,5,4,5,5,3,4,3,6,6,6,5,5,5,2,2,2,3,2,2,2,2,3,2,2,2,3,2,4,2,3,3,3,1,4,1,1,4,3,2,5,4,2,4,4,2,3,1,5,2,3,3,2,4,4,4,4,4,2,3,4,4,5,4,4,5,5,1,2,1,1,2,4,3,4,2,3,3,5,3,4,2,4,4,5,5,5,2,1,4,2,2,1,4
Serbia,1995,2,1,1,7,1.69,59,4,2,2,2,2,NA,1,2,36.3,36.3,36.3,45.11669922,21.30360413,42,7,11:01:50,6,1,2,1,NA,4,4,5,NA,3,4,6,6,1,NA,2,8,1,NA,NA,1,1,NA,2,Gradski hor,NA,NA,NA,NA,5,NA,NA,NA,NA,5,4,3,5,5,5,4,5,5,5,4,4,5,2,3,3,3,2,3,2,3,2,2,3,4,2,2,4,3,2,4,2,2,4,1,4,4,4,2,4,3,2,4,4,2,3,2,4,2,2,8,5,4,2,5,4,5,NA,5,3,1,3,8,4,2,2,NA,8,1,2,2,4,5,3,NA,1,NA,NA,4,6,4,1,3,5,5,5,5,5,5,5,5,5,6,4,5,3,6,5,5,3,4,1,3,1,2,2,2,3,2,2,3,3,2,3,3,5,7,7,1,5,4,5,2,2,2,5,4,4,2,4,3,2,3,2,4,4,1,3,4,5,4,4,4,4,4,4,3,2,1,1,2,4,1,5,2,3,4,4,4,1,1,4,4,4,4,4,1,4,4,4,4,4,1,4,4,3,4,3,4
Tsinghua,1995,2,1,1,7,1.58,51,3,2,0,0,2,0,1,2,36,36.6,36.3,39.92889404,116.3883057,21,11,10:03:19,7,3,2,1,0,4,4,5,0,4,2,4,4,1,1,2,3,1,1,1,4,2,1,1,°à¼¶,ËÞÉá,NA,NA,NA,2,3,NA,NA,NA,2,4,4,3,3,3,3,2,4,4,3,3,4,2,2,3,3,3,3,3,2,3,4,3,3,3,2,3,4,2,4,2,2,3,3,4,3,2,4,3,2,3,3,3,3,2,4,5,3,4,5,4,5,4,3,4,2,2,2,2,3,4,3,5,2,4,2,5,3,2,2,3,2,4,2,2,3,2,3,4,5,2,3,4,4,4,4,4,4,4,4,4,6,4,2,6,6,6,6,2,2,1,2,3,2,2,2,3,2,2,2,2,2,3,2,5,8,6,5,6,6,6,4,2,4,4,4,2,2,2,2,4,4,2,4,3,4,3,3,4,1,1,5,5,3,2,3,3,3,3,3,3,4,2,2,2,2,2,1,3,3,4,2,3,3,3,3,4,4,3,3,3,3,3,3,3,3,3,3
Oxford,1995,2,1,1,7,1.75,66,3,2,0,4,2,NA,1,2,35.9,36.7,36.3,51.75,-1.25,88,-2.222222222,07:19:46,5,1,2,1,NA,4,4,4,1,4,1,8,6,1,NA,2,8,3,1,1,8,1,NA,1,NA,NA,NA,NA,NA,NA,NA,NA,NA,NA,2,2,3,5,3,3,1,1,2,3,3,5,2,2,2,4,3,3,2,3,2,2,2,3,3,3,2,3,4,3,4,1,2,4,2,4,4,2,2,4,2,2,2,2,2,3,2,4,2,1,2,4,2,1,2,3,1,2,2,1,4,1,1,5,1,1,1,1,2,2,1,1,1,1,2,1,1,1,1,2,2,2,1,4,4,4,5,5,5,3,4,4,3,5,5,4,5,3,3,2,4,1,3,2,2,2,2,3,3,2,2,1,2,2,2,5,7,4,5,3,3,6,1,4,2,5,2,4,3,2,4,1,4,1,4,4,4,2,2,4,2,2,4,4,4,5,3,5,3,4,4,2,5,1,3,2,2,3,2,5,2,2,4,4,2,2,2,4,4,4,3,4,3,2,4,2,3,2,4
Poland,1995,2,1,2,7,1.67,57,3,2,11,5,2,NA,1,2,36.2,36.4,36.3,NA,NA,87,1,10:42:29,9,1,2,1,NA,4,2,5,1,2,2,5,5,1,NA,2,8,6,1,8,1,1,NA,1,NA,NA,NA,NA,NA,NA,NA,NA,NA,NA,3,3,4,2,4,2,2,3,3,2,3,2,3,4,3,2,3,3,4,3,3,3,3,4,4,3,2,2,4,3,4,4,4,2,2,3,4,2,4,4,2,2,2,2,2,2,4,2,5,6,6,6,6,6,6,3,6,2,6,7,2,6,7,6,2,6,2,6,2,5,2,2,5,6,2,2,6,6,2,6,6,5,6,2,3,3,4,3,3,2,3,4,6,1,4,5,4,4,6,4,5,2,2,3,3,4,2,2,3,2,2,2,1,2,3,3,3,3,4,3,3,2,4,2,3,5,2,2,2,3,3,5,2,2,3,4,4,2,4,2,4,4,4,4,4,5,5,4,3,5,5,4,4,2,2,2,3,4,2,4,3,3,2,4,2,4,3,2,4,4,4,4,4,2,3,2,2,4,2
Oslo,1995,2,1,2,6,1.8,72,4,2,NA,NA,2,NA,1,2,36.1,36.5,36.3,59.91270447,10.74609375,87,-3,09:55:58,4,1,2,1,NA,4,4,5,NA,8,4,8,8,2,1,2,8,1,NA,NA,5,1,NA,2,idrettsgruppe,kollokvie,faddergruppe,-,-,7,4,7,NA,NA,2,3,4,3,2,2,2,2,3,4,3,4,2,3,2,5,3,3,2,3,5,2,3,2,5,3,2,4,3,3,4,3,2,4,2,5,4,4,4,4,4,4,4,4,4,3,4,4,4,4,4,4,3,4,5,4,4,5,4,4,4,3,4,3,4,4,4,5,4,4,3,5,4,4,4,4,4,4,5,4,4,2,4,5,5,5,5,5,5,4,5,5,4,4,4,4,5,4,4,2,2,1,2,2,1,2,3,3,1,2,2,3,1,3,2,5,7,7,2,5,6,5,2,4,3,3,2,4,4,4,5,5,5,1,3,5,5,4,3,4,3,4,2,3,4,4,4,3,4,5,3,4,3,3,3,4,4,4,4,3,2,3,3,4,4,4,2,4,3,4,5,4,2,4,4,4,4,2,4
Serbia,1995,2,1,1,7,1.69,56,5,2,0,0,1,10,1,2,36.3,36.3,36.3,44.81860352,20.46809387,58,6,11:16:31,6,1,2,1,NA,4,4,5,NA,4,4,6,6,1,NA,2,8,1,NA,NA,1,1,NA,1,NA,NA,NA,NA,NA,NA,NA,NA,NA,NA,4,2,1,5,5,5,2,2,1,3,2,5,4,2,2,3,2,1,1,2,3,1,2,3,5,3,2,5,5,4,3,4,4,3,2,1,5,2,3,2,4,2,2,2,2,2,4,1,1,4,2,2,2,2,1,NA,1,NA,1,1,1,5,1,1,1,1,3,3,1,1,1,1,NA,NA,4,NA,5,NA,1,5,5,NA,NA,4,5,3,5,5,4,1,3,3,3,4,1,2,3,2,3,1,1,1,2,1,1,4,1,2,1,3,5,1,3,3,1,3,3,4,1,2,1,3,5,2,1,5,3,5,3,4,4,5,2,2,2,1,1,1,4,5,3,5,4,4,4,4,1,1,1,2,2,2,5,1,2,1,2,4,3,2,1,1,2,4,3,4,2,3,4,3,4,5,3,4,1,3,2,3,1
SMU,1995,2,1,2,7,1.65,45,3,2,0,2,2,NA,1,2,36.1,36.5,36.3,1.293106079,103.8558044,70,26,10:32:00,5,1,2,1,NA,4,4,5,NA,5,5,8,3,2,5,2,5,1,NA,NA,3,1,NA,1,NA,NA,NA,NA,NA,NA,NA,NA,NA,NA,2,3,4,3,4,3,3,3,3,3,3,3,3,3,3,3,3,3,3,3,3,3,3,4,3,3,3,3,4,3,4,3,3,4,4,4,3,3,3,3,3,3,3,3,3,3,3,3,3,3,4,3,3,3,3,5,4,3,3,3,3,3,3,4,4,4,4,3,4,3,4,4,3,3,3,4,3,4,3,3,4,4,4,4,4,4,4,4,4,4,4,4,3,4,4,4,4,4,4,3,3,2,3,3,3,3,3,3,3,3,3,3,3,4,2,3,3,4,2,2,2,2,4,4,4,3,4,4,4,4,4,4,3,3,4,3,3,4,3,3,3,4,4,4,4,3,4,3,4,3,3,4,3,2,3,4,3,4,3,4,2,4,4,4,4,3,3,4,4,4,4,4,3,3,3,3,3,4,4
METU,1995,1,1,2,7,1.87,86,2,2,2,0,2,NA,1,2,36.3,36.3,36.3,39.91169739,32.84030151,64,2,09:49:23,3,2,2,1,NA,4,4,5,NA,6,5,4,3,2,8,2,8,1,NA,NA,1,1,NA,2,Dini Topluluk,Siyasi Topluluk,NA,NA,NA,7,7,NA,NA,NA,4,4,4,5,4,4,3,4,4,3,3,4,5,3,3,3,2,3,3,2,2,3,3,4,4,4,2,4,4,4,4,4,2,4,4,4,5,5,5,5,5,2,1,1,4,4,5,6,2,2,5,2,5,6,5,2,6,6,2,1,1,5,5,5,1,3,2,3,3,3,3,3,3,5,2,2,4,2,3,2,3,3,2,5,5,5,5,5,4,4,4,4,6,6,6,6,4,4,4,2,2,4,3,2,2,4,2,3,2,2,1,2,2,4,4,3,3,4,2,2,3,5,2,2,5,4,1,2,5,4,5,5,5,1,5,5,3,5,4,5,1,4,5,5,2,2,4,3,5,2,4,4,2,2,2,2,4,5,5,5,1,2,4,1,4,4,2,2,4,4,4,5,2,1,4,3,2,2,4
VCU,1995,2,1,2,6,1.7018,70.45454545,4,2,0,0,2,NA,1,2,36.16666667,36.44444444,36.30555556,37.55220032,-77.45819855,97,11.11111111,09:42:35,5,1,2,1,NA,4,4,5,NA,5,5,7,7,1,NA,2,3,3,1,6,5,1,NA,1,NA,NA,NA,NA,NA,NA,NA,NA,NA,NA,2,5,5,4,4,3,4,2,3,5,4,3,5,2,2,3,2,3,2,2,2,1,2,3,5,1,2,2,2,2,3,2,2,2,1,4,2,2,2,2,2,2,2,2,2,2,2,4,3,4,4,4,4,4,2,4,2,4,4,2,4,2,2,4,4,4,4,4,4,4,4,4,4,4,4,4,5,6,5,4,4,4,4,5,5,5,5,5,5,4,3,3,4,2,2,2,3,2,3,4,2,1,4,1,1,2,1,4,2,1,3,4,4,3,4,3,4,2,1,1,4,2,2,4,2,5,5,2,5,4,3,2,2,2,4,2,2,4,2,2,2,2,4,3,4,2,1,3,4,4,3,3,2,2,2,2,5,4,5,3,2,4,4,3,3,1,4,4,4,1,1,3,3,5,3,3,3,3,1
VCU,1995,2,1,2,5,1.7018,70.45454545,4,2,0,0,2,NA,1,2,36.16666667,36.44444444,36.30555556,37.55220032,-77.45819855,82,11.11111111,16:47:14,5,1,2,1,NA,4,4,5,NA,6,6,6,5,1,NA,2,2,3,1,4,5,1,NA,1,NA,NA,NA,NA,NA,NA,NA,NA,NA,NA,2,4,4,4,4,2,4,2,5,5,2,3,4,2,3,3,3,4,4,3,2,4,3,2,2,3,3,3,2,3,3,2,3,2,2,3,3,3,3,3,3,3,3,3,3,3,3,4,3,4,3,3,5,5,3,4,4,4,5,5,3,4,5,4,3,4,5,4,4,3,5,4,5,4,5,4,6,5,3,4,3,4,3,3,3,4,4,3,3,2,2,2,4,3,3,3,3,3,4,3,3,3,3,3,3,3,3,3,3,3,3,3,3,3,3,2,2,4,1,2,2,2,3,3,3,3,3,3,3,3,3,3,3,3,3,3,3,3,3,3,3,3,3,3,3,3,3,3,3,3,3,3,3,3,3,3,3,3,3,3,3,3,3,3,3,3,3,3,3,3,3,3,3,3,3,3,3,3,3
VCU,1995,2,1,2,7,1.651,56.36363636,2,2,0,0,2,NA,1,2,36.22222222,36.38888889,36.30555556,37.55220032,-77.45819855,68,8.888888889,11:43:02,5,1,2,1,NA,4,1,5,NA,2,1,3,2,1,NA,2,5,1,NA,NA,1,2,2,1,NA,NA,NA,NA,NA,NA,NA,NA,NA,NA,1,1,1,2,2,4,1,1,1,1,2,1,3,4,3,3,4,4,3,4,3,3,4,3,5,3,3,4,4,4,4,4,4,4,5,4,4,4,4,4,2,2,2,2,4,4,4,6,6,6,6,4,6,5,6,6,5,5,2,4,6,7,2,6,2,5,5,7,6,6,5,6,6,2,6,4,6,3,6,5,6,6,3,3,3,4,4,3,4,2,3,3,6,3,3,4,7,7,7,4,5,4,5,3,4,4,4,4,4,3,1,1,2,2,3,4,4,4,4,3,5,2,1,3,4,5,3,3,4,2,4,4,2,1,1,2,3,1,4,4,2,2,4,2,3,1,2,3,3,2,3,2,3,4,3,4,4,3,3,5,1,2,4,4,2,2,4,3,4,2,2,4,4,4,3,4,3,2,2
VCU,1995,2,3,1,7,1.6256,59.09090909,4,2,2,0,2,NA,1,2,36.28,36.33333333,36.30666667,37.55220032,-77.45819855,94,13.33333333,09:40:25,5,1,1,1,NA,4,4,4,4,6,5,6,6,1,NA,2,6,1,NA,NA,1,1,NA,1,NA,NA,NA,NA,NA,NA,NA,NA,NA,NA,3,4,4,2,4,3,4,3,2,4,4,5,5,3,3,3,2,1,2,2,3,2,2,2,4,2,3,3,3,3,3,4,3,3,4,4,4,4,4,4,4,2,2,2,3,2,4,2,2,2,2,2,2,2,2,2,2,2,2,2,4,2,2,2,2,2,1,2,2,2,2,2,2,6,2,2,2,2,2,2,2,1,2,4,4,4,4,4,4,4,4,4,4,6,5,5,5,5,5,3,3,3,2,3,4,3,3,3,4,3,2,3,2,3,2,5,5,6,5,5,6,5,2,4,2,4,4,4,4,4,4,4,2,3,2,4,4,3,3,4,3,3,4,4,4,4,4,4,4,4,4,4,2,2,2,4,2,3,3,2,2,2,2,2,4,4,2,4,4,4,4,4,2,4,3,4,4,2,2
UCSB,1995,2,1,2,7,1.5748,70,4,1,0,0,2,NA,1,2,36.27777778,36.38888889,36.33333333,34.4329071,-119.8370972,71,7.777777778,NA,5,1,2,1,NA,4,4,5,NA,1,NA,6,5,2,3,2,8,3,8,8,5,1,NA,2,Rec Cen,NA,NA,NA,NA,60,NA,NA,NA,NA,5,2,4,4,4,2,4,5,4,2,5,4,5,3,4,4,2,2,2,3,3,2,1,3,5,3,3,1,1,1,3,4,1,1,4,1,5,3,4,4,4,1,1,1,1,1,4,6,5,7,7,7,7,5,6,2,6,4,3,4,7,5,7,6,1,4,3,5,2,1,1,1,2,3,4,3,5,3,1,4,5,1,7,4,5,5,5,5,5,4,5,5,7,7,7,6,7,7,6,1,2,1,1,1,1,3,2,4,3,1,1,1,2,1,1,4,6,7,8,4,5,5,4,3,4,4,4,1,3,2,2,4,2,2,2,4,4,2,4,2,4,4,3,1,5,5,5,4,5,5,4,5,4,1,3,3,4,5,5,2,1,4,4,2,5,4,4,2,5,4,4,4,4,5,5,2,4,1,5
UCSB,1995,2,1,1,7,1.5748,50,5,1,4,0,2,NA,1,2,35.83333333,36.83333333,36.33333333,34.4329071,-119.8370972,69,8.333333333,11:07:00,5,1,2,1,NA,4,4,5,NA,6,4,6,6,2,2,2,8,1,NA,NA,3,1,NA,2,AXO,NA,NA,NA,NA,7,NA,NA,NA,NA,4,3,4,3,4,1,2,3,2,1,5,5,4,3,3,5,2,2,2,2,2,2,2,3,5,2,3,2,3,2,4,4,4,2,4,4,4,4,4,4,4,1,1,2,2,2,4,5,4,1,2,2,4,4,2,3,1,4,1,2,2,1,1,4,1,2,1,2,1,1,1,1,2,2,1,1,1,1,2,4,4,1,1,5,5,5,5,5,5,5,5,5,3,4,5,4,5,5,5,3,4,2,3,3,2,2,3,2,2,2,2,2,2,2,1,5,5,6,3,3,1,1,1,2,3,5,4,3,3,2,4,2,1,3,1,2,3,1,3,2,1,1,2,4,5,4,3,5,3,4,4,3,1,1,2,1,5,4,4,1,1,3,3,3,4,2,3,4,4,2,4,3,3,2,4,2,3,2,4
Serbia,1995,2,1,1,6,1.72,64,4,2,NA,NA,2,NA,1,2,36.3,36.4,36.35,44.81860352,20.46809387,95,6,11:56:27,6,1,2,1,NA,4,4,5,NA,3,2,5,5,1,NA,2,8,1,NA,NA,4,1,NA,1,NA,NA,NA,NA,NA,NA,NA,NA,NA,NA,5,5,4,5,5,4,4,2,4,5,4,5,5,2,5,3,2,2,1,3,2,2,2,2,3,2,1,1,1,1,1,1,1,1,1,2,3,1,1,1,1,1,1,1,1,1,1,1,1,1,2,4,1,4,1,1,4,1,2,1,2,1,2,2,1,3,1,8,NA,2,2,2,3,NA,1,1,NA,1,1,6,7,NA,3,4,4,4,5,3,5,4,4,3,5,4,4,2,4,4,4,2,2,1,3,2,1,2,3,3,2,1,2,2,3,4,3,4,5,6,2,6,1,5,3,3,3,5,3,2,2,2,2,5,1,2,2,2,3,3,3,4,4,5,4,4,5,5,1,1,4,3,2,2,2,5,1,2,4,4,4,3,2,2,3,4,3,2,2,3,3,2,3,3,2,3,3,4,3,3,4
Serbia,1995,2,1,1,7,1.7,57,2,2,0,0,2,NA,1,2,36.3,36.4,36.35,44.81860352,20.46809387,83,4,11:14:43,6,1,2,1,NA,4,4,5,NA,6,6,6,6,1,NA,2,8,1,NA,NA,2,2,8,2,Crveni krst,NA,NA,NA,NA,8,NA,NA,NA,NA,4,3,1,3,5,4,1,1,4,3,4,4,3,3,3,3,2,2,2,3,3,3,3,5,5,2,3,3,3,2,3,1,2,3,2,3,4,2,3,3,3,1,1,1,1,1,3,5,4,2,4,3,3,5,5,5,2,3,2,2,4,4,4,5,2,4,NA,5,NA,5,2,3,3,NA,NA,NA,6,3,3,6,5,NA,5,4,4,4,5,5,5,3,4,3,4,5,5,5,6,5,6,2,2,1,2,4,2,3,2,2,2,3,2,1,2,1,2,5,4,5,3,3,5,4,1,2,2,5,2,5,3,4,4,4,2,2,3,4,4,3,4,5,5,3,3,3,4,4,2,1,1,1,3,5,2,4,3,3,4,3,3,3,2,3,2,4,3,4,1,4,5,4,3,4,3,4,4,3,3,2,4
Tsinghua,1995,2,1,1,7,1.6,50,4,2,0,0,2,0,1,2,36.3,36.4,36.35,30.66670227,104.0667114,73,16,13:10:35,7,3,2,1,0,4,4,5,0,3,3,6,4,1,1,2,3,1,1,3,1,2,1,2,ÇàÄêÖ¾Ô¸ÕßÐ­»á,NA,NA,NA,NA,1,0,0,0,0,4,4,3,4,4,4,1,3,2,3,4,3,2,2,1,2,2,2,1,3,2,2,3,1,2,3,2,3,2,2,3,3,3,2,2,3,4,4,4,3,2,2,2,2,2,2,4,4,5,4,5,4,3,4,5,3,4,4,3,3,3,4,3,4,2,6,2,4,5,4,6,6,3,3,4,2,5,2,6,5,4,5,3,5,5,5,5,5,5,4,4,4,4,3,4,4,3,4,3,2,2,3,2,3,2,3,4,3,2,4,3,2,2,3,2,3,3,4,2,2,2,5,3,4,4,4,2,4,2,2,4,4,4,4,2,4,4,2,4,4,2,2,3,2,4,2,4,4,4,2,4,4,2,2,3,2,2,2,3,2,2,4,4,4,4,3,2,4,4,3,2,3,3,4,4,4,4,2,3
Tsinghua,1995,1,1,2,7,1.8,69,4,2,38,24,2,0,1,2,36.3,36.4,36.35,30.66670227,104.0667114,91,13,10:58:31,7,3,2,1,0,4,4,5,0,4,1,6,3,1,2,2,8,1,1,8,1,2,1,1,Ó¢Óï¾ãÀÖ²¿,ÌåÓý²¿,NA,NA,NA,7,7,NA,NA,NA,3,3,3,3,2,5,1,3,1,2,2,3,3,3,5,4,3,3,3,3,5,3,3,4,5,3,5,2,2,1,4,2,1,3,4,4,1,1,1,1,1,1,1,1,1,1,1,2,4,2,5,6,2,5,4,4,5,6,5,2,2,5,3,7,4,4,2,6,2,3,5,6,2,6,2,6,2,4,6,2,5,2,2,5,5,5,5,5,5,5,5,5,3,1,4,7,7,7,7,3,3,3,2,2,4,4,3,4,2,2,1,4,2,4,2,3,6,7,2,3,3,4,1,4,4,4,3,2,2,2,2,4,5,1,3,3,3,4,3,5,2,3,5,5,5,3,3,5,5,5,5,5,4,3,3,2,1,4,4,5,2,4,3,5,4,2,2,4,4,3,3,3,2,4,3,3,3,2,4
Serbia,1995,2,1,1,7,1.8,62,5,2,8,8,2,NA,1,2,36.2,36.5,36.35,45.25169373,19.8368988,44,12,11:45:14,6,1,2,1,NA,4,4,4,2,1,NA,3,5,2,2,2,8,1,NA,NA,1,1,NA,1,NA,NA,NA,NA,NA,NA,NA,NA,NA,NA,4,4,4,4,4,4,4,2,4,4,4,4,4,2,3,2,3,2,2,2,2,3,2,2,4,2,2,3,3,2,3,3,2,2,2,4,4,4,4,4,4,2,2,2,2,3,4,2,2,2,2,8,3,2,2,NA,2,NA,2,2,2,2,2,2,2,8,3,5,NA,5,2,3,NA,NA,3,3,5,3,3,5,5,NA,NA,4,4,4,5,5,5,5,5,5,5,4,3,3,4,4,4,3,4,2,3,2,3,4,3,3,3,2,2,3,2,3,2,4,4,5,3,4,4,4,3,3,1,5,2,3,3,3,3,5,4,4,2,3,2,4,3,5,4,5,4,3,5,5,1,1,3,3,4,3,3,4,2,4,4,4,4,3,2,3,4,4,4,3,2,4,4,4,3,4,2,4,3,4,4,3,3
Oslo,1995,2,1,1,7,1.63,59,3,2,NA,NA,2,NA,1,2,36.3,36.4,36.35,59.91270447,10.74609375,76,1,11:13:40,4,1,2,1,NA,2,2,5,NA,6,2,7,7,1,NA,2,8,1,NA,NA,1,1,NA,1,NA,NA,NA,NA,NA,NA,NA,NA,NA,NA,3,3,3,4,2,1,1,2,2,2,2,4,3,3,3,4,2,2,2,3,3,2,2,2,4,3,2,4,3,1,3,1,1,3,4,5,4,3,4,4,3,2,5,5,3,4,4,2,2,1,4,5,3,2,5,1,1,4,2,1,5,1,6,6,3,1,2,5,2,2,1,1,1,2,2,1,3,1,3,1,2,1,2,5,5,4,4,4,3,3,5,5,4,4,4,3,4,3,3,2,2,1,2,1,2,4,1,1,2,1,1,1,1,2,1,4,5,6,2,3,3,1,2,2,1,5,3,5,3,1,4,4,4,1,2,4,3,3,5,4,3,3,3,3,5,5,5,4,4,3,4,4,2,2,2,2,4,3,2,1,2,2,3,2,2,4,1,1,4,4,5,4,1,3,3,3,4,2,2
METU,1995,2,1,2,6,1.65,55,3,2,1,0,2,NA,1,2,36.6,36.1,36.35,39.91169739,32.84030151,71,8,10:54:06,3,2,4,1,NA,4,4,5,NA,6,2,6,6,1,NA,2,7,1,NA,NA,1,1,NA,2,ODT? Sualt? Toplulu?u,By Sanat Dans Okulu,NA,NA,NA,3,3,NA,NA,NA,2,4,2,4,3,4,4,2,3,1,4,3,4,3,2,4,4,3,2,3,3,4,3,2,4,3,2,4,3,2,3,2,2,3,2,4,3,4,2,3,4,2,2,3,2,1,4,5,2,1,3,6,6,2,6,1,5,2,5,1,2,1,1,1,2,1,2,1,3,5,2,4,4,2,2,2,2,2,4,2,1,2,3,5,5,3,5,5,5,4,4,4,7,5,4,5,6,5,6,2,2,2,3,4,4,3,3,2,4,2,2,4,3,2,2,3,2,4,1,3,1,2,2,4,3,5,4,2,4,2,4,2,2,2,4,4,4,2,3,5,2,4,3,3,2,5,5,5,5,3,5,5,1,1,1,3,5,4,4,4,4,4,4,4,3,5,2,4,2,5,5,5,2,2,5,3,2,2,2
METU,1995,2,1,1,7,1.6,53,4,2,0,0,2,NA,1,2,36.4,36.3,36.35,39.91169739,32.84030151,58,7,11:12:12,3,2,2,1,NA,4,4,5,NA,8,2,4,4,1,NA,2,8,1,NA,NA,1,1,NA,1,NA,NA,NA,NA,NA,NA,NA,NA,NA,NA,4,3,2,4,5,4,4,2,2,3,3,3,4,3,3,3,2,3,2,3,3,3,3,3,3,3,3,3,3,2,3,4,2,2,2,4,5,2,4,5,3,1,1,2,1,1,5,2,2,5,2,4,4,3,2,4,2,4,2,2,1,1,5,2,2,2,2,2,2,2,2,2,5,2,2,2,5,2,2,2,3,1,3,5,5,5,5,5,5,5,5,5,3,2,3,4,2,1,1,2,2,1,3,2,3,3,3,2,2,3,2,2,2,2,1,5,6,5,2,4,4,2,2,2,4,4,2,2,3,4,3,5,3,2,4,4,4,4,3,3,4,4,4,3,3,4,4,4,5,3,3,3,2,2,2,2,4,4,3,3,2,4,4,5,4,3,2,4,3,4,3,5,3,4,4,4,3,2,4
Serbia,1995,2,1,2,7,1.7,50,3,2,0,0,2,NA,1,2,36.4,36.3,36.35,44.81860352,20.46809387,65,2,11:19:17,6,1,2,1,NA,2,2,5,NA,2,2,4,4,1,NA,2,7,1,NA,NA,1,1,NA,1,NA,NA,NA,NA,NA,NA,NA,NA,NA,NA,4,3,5,5,5,5,1,3,5,5,5,5,5,5,5,5,4,4,4,4,4,4,5,5,5,4,5,2,4,1,5,3,3,4,1,4,4,1,4,1,4,1,4,1,4,1,4,4,5,4,7,7,7,2,8,3,1,6,4,8,8,1,8,7,2,1,NA,5,1,2,8,2,NA,1,NA,NA,NA,NA,5,7,7,1,4,5,5,4,5,5,5,5,5,4,5,6,5,5,6,6,5,1,2,5,2,4,5,2,1,2,1,1,3,1,1,3,1,5,3,6,1,3,5,3,2,4,1,5,1,2,2,2,3,4,4,1,1,1,4,5,5,2,2,5,4,2,4,4,2,2,1,2,4,2,1,5,2,2,5,5,5,3,1,4,4,4,4,1,3,5,5,1,1,5,4,5,5,5,2,2,1
SMU,1995,1,1,1,3,1.81,67,2,2,5,4,2,NA,2,2,36.2,36.5,36.35,NA,NA,75,26,10:47:30,5,1,2,1,NA,4,4,5,NA,6,4,3,4,1,NA,2,2,1,NA,NA,1,1,NA,1,NA,NA,NA,NA,NA,NA,NA,NA,NA,NA,3,2,5,3,4,3,4,2,4,3,2,2,2,2,3,4,3,3,4,4,3,3,4,2,2,4,4,3,4,3,3,5,2,4,4,3,4,3,3,2,5,4,3,2,2,4,2,4,2,3,5,3,2,4,3,6,3,5,5,3,4,4,3,6,4,2,4,5,4,5,5,4,3,4,6,2,5,6,3,4,4,3,4,3,2,2,3,2,3,3,5,4,5,4,5,4,4,3,4,2,2,2,3,4,2,3,5,5,1,2,2,4,4,3,5,2,3,4,4,5,2,2,2,3,3,4,3,4,2,2,2,2,4,4,3,4,2,3,3,3,2,2,3,4,3,5,3,3,4,2,2,4,3,3,4,2,2,3,2,3,3,2,3,4,2,2,3,3,2,2,1,4,1,3,3,2,3,4,3
SMU,1995,2,1,2,6,1.71,60,3,2,2,0,2,NA,1,2,36.2,36.5,36.35,1.293106079,103.8558044,70,27,10:30:02,5,1,2,1,NA,4,4,5,NA,8,8,6,6,2,1,2,8,1,NA,NA,1,1,NA,1,NA,NA,NA,NA,NA,NA,NA,NA,NA,NA,4,3,4,2,2,4,3,4,3,2,4,3,4,3,4,4,3,3,2,3,4,3,3,4,5,3,5,3,4,3,4,3,3,5,2,4,2,3,3,3,2,2,2,2,2,2,2,4,4,5,4,4,5,3,3,4,3,4,3,4,3,3,3,4,3,5,5,5,5,3,4,4,4,4,4,4,5,4,5,4,5,4,4,5,5,5,5,5,5,5,5,5,6,6,6,6,6,6,5,2,2,2,2,3,3,2,2,2,3,3,1,2,2,4,2,4,6,5,6,6,6,6,3,4,4,3,2,3,5,4,4,2,3,2,4,4,3,4,3,2,4,4,4,3,3,5,4,4,4,4,3,4,3,2,3,2,2,4,3,3,2,4,4,3,4,3,3,4,4,4,4,3,3,5,3,4,4,2,4
Poland,1995,2,1,2,4,1.64,56,3,2,32,2,2,NA,1,2,36.4,36.3,36.35,53.12710571,18.02000427,81,-2,11:36:49,9,1,2,1,NA,4,2,5,1,4,1,5,3,1,NA,2,7,2,1,1,1,1,NA,2,blgerki,NA,NA,NA,NA,1,NA,NA,NA,NA,2,4,3,5,4,4,2,2,1,4,1,3,4,2,5,5,4,4,3,4,3,2,4,5,5,4,4,3,5,4,4,4,4,3,1,4,5,5,5,4,4,2,2,2,3,2,5,4,4,3,6,7,5,4,5,7,3,1,2,2,1,5,7,6,1,5,4,6,5,6,5,6,6,3,2,4,6,5,5,7,7,5,4,5,3,5,4,2,4,3,4,4,7,7,6,6,7,6,7,2,2,2,1,2,2,2,1,2,2,1,2,1,2,4,1,4,5,2,2,2,1,1,1,2,1,5,4,4,2,2,4,2,2,1,1,2,1,1,2,4,2,4,5,5,3,4,3,3,4,2,2,4,4,3,3,1,2,5,4,1,1,4,4,2,5,4,2,3,5,1,2,4,4,5,4,5,4,1,4
Serbia,1995,2,3,1,7,1.71,60,4,1,4,0,1,10,1,2,36.2,36.6,36.4,44.81860352,20.46809387,65,2,10:29:24,6,1,2,1,NA,4,4,5,NA,5,5,7,6,1,NA,2,8,1,NA,NA,3,1,NA,1,NA,NA,NA,NA,NA,NA,NA,NA,NA,NA,3,4,3,5,3,3,2,2,2,4,2,3,4,2,4,3,2,4,2,3,2,3,2,4,4,2,2,2,2,2,2,1,1,2,1,1,4,3,3,3,2,1,2,2,1,1,3,4,2,1,1,4,1,2,2,1,1,1,1,4,4,2,1,5,1,1,1,3,1,4,1,1,4,1,1,1,1,1,1,6,4,1,1,4,4,4,5,5,3,2,4,5,6,6,4,4,7,6,5,1,3,2,3,3,2,2,3,2,2,1,1,2,1,2,1,5,7,7,1,7,7,8,1,5,1,5,3,5,2,2,5,2,1,3,4,3,3,5,3,5,4,5,4,1,4,4,1,1,1,1,2,5,1,4,1,4,4,3,3,3,2,5,3,2,5,4,1,5,5,4,4,5,2,4,3,5,5,3,2
SMU,1995,2,1,1,7,1.68,48,3,2,2,0,2,NA,1,2,36.4,36.4,36.4,1.293106079,103.8558044,70,27,10:12:26,5,1,2,1,NA,4,4,5,NA,2,1,4,3,2,1,2,4,1,NA,NA,1,1,NA,1,NA,NA,NA,NA,NA,NA,NA,NA,NA,NA,2,2,1,4,3,2,1,1,1,2,4,5,3,2,3,3,1,2,2,3,3,2,3,2,5,2,3,2,2,1,2,4,1,1,1,2,1,1,1,1,1,1,2,2,1,1,1,5,5,7,7,7,6,1,7,5,2,6,5,6,5,3,7,5,7,4,3,3,2,2,2,3,2,2,3,3,3,3,2,3,3,2,6,5,4,4,5,2,3,3,4,3,5,7,6,6,7,6,6,2,2,1,2,1,1,2,2,2,2,2,2,1,3,2,1,4,6,4,1,1,1,3,4,5,5,1,1,1,4,4,2,5,5,4,5,5,2,5,1,4,4,5,3,4,2,5,5,5,2,3,4,1,1,4,2,4,1,4,2,5,2,4,2,5,2,4,4,3,4,4,5,3,2,4,2,1,1,1,1
Serbia,1995,2,1,1,7,1.68,60,4,2,3,0,2,NA,1,2,36.4,36.4,36.4,44.81860352,20.46809387,58,4,11:17:09,6,1,2,1,NA,4,4,5,NA,6,4,6,5,1,NA,2,8,1,NA,NA,1,2,3,1,NA,NA,NA,NA,NA,NA,NA,NA,NA,NA,4,3,3,5,3,5,4,4,4,4,5,4,4,2,3,3,2,2,1,2,2,2,2,3,5,2,3,2,3,1,3,1,1,2,2,4,4,3,4,3,3,1,2,3,2,1,2,3,2,2,3,2,3,5,3,NA,3,3,3,2,3,2,2,5,2,3,NA,8,3,3,2,4,3,NA,4,3,5,3,4,7,6,1,NA,5,5,5,5,5,5,3,5,5,2,4,3,2,3,3,3,4,4,3,3,1,2,2,3,3,2,3,4,2,2,2,2,3,3,4,2,2,3,4,2,2,1,4,4,3,4,2,4,4,3,1,2,1,4,3,5,5,4,5,5,4,4,5,1,1,2,2,2,2,1,3,2,2,1,3,4,2,3,2,4,5,3,3,4,5,4,2,3,4,2,4,2,4,4,2,5
Tsinghua,1995,2,1,2,7,1.65,55,2,2,0,0,2,0,1,2,36.5,36.3,36.4,30.58009338,114.273407,78,17,10:42:30,7,3,1,2,1,1,2,4,4,6,1,3,1,1,1,1,1,1,1,1,1,2,1,2,NA,NA,NA,NA,NA,NA,NA,NA,NA,NA,4,3,3,4,5,3,1,2,3,3,2,1,4,1,2,1,2,3,1,2,1,2,2,1,2,4,2,4,2,1,4,1,2,3,4,1,5,3,4,3,1,1,1,1,1,1,2,5,5,2,3,4,5,2,2,5,2,3,4,1,1,1,2,1,2,2,2,4,2,1,1,1,2,2,3,5,2,2,2,5,3,2,5,3,3,4,2,4,4,4,3,5,4,1,5,2,5,6,6,4,4,1,4,2,2,4,3,1,4,5,2,3,2,3,1,4,4,4,2,2,1,1,1,5,4,4,1,2,1,2,4,5,2,1,2,4,2,2,2,3,1,1,4,4,3,1,1,4,3,2,4,4,1,1,1,2,4,2,1,1,2,3,4,2,3,2,2,2,4,4,4,3,2,2,3,3,4,3,2
METU,1995,1,1,2,1,1.82,89,3,2,5,0,1,20,1,2,36.4,36.4,36.4,39.91169739,32.84030151,60,9,09:34:29,3,2,2,1,NA,4,4,5,NA,3,3,4,3,1,NA,2,8,1,NA,NA,1,1,NA,1,NA,NA,NA,NA,NA,NA,NA,NA,NA,NA,5,2,4,3,1,4,3,3,2,4,5,1,5,2,3,3,2,2,2,3,2,2,2,4,4,3,2,2,3,4,3,2,2,4,2,2,3,3,3,3,2,2,2,4,3,4,3,5,3,3,5,7,5,5,4,5,2,4,5,2,5,7,4,2,3,4,5,6,1,3,2,2,1,1,3,2,4,3,2,5,6,1,6,4,2,4,4,3,5,3,4,3,7,4,3,3,4,4,4,2,2,2,2,2,2,2,2,4,2,2,1,1,1,3,1,4,7,5,1,5,7,5,4,2,5,5,2,3,3,4,4,5,4,2,4,5,3,4,2,5,4,4,5,3,4,3,3,4,2,2,4,3,2,4,4,2,5,5,4,5,1,3,4,5,2,2,2,3,3,4,4,2,5,3,1,3,2,2,4
Tsinghua,1995,2,1,1,7,1.63,50,2,2,0,0,2,0,2,2,36.5,36.3,36.4,NA,NA,88,15,10:42:36,7,3,1,1,0,4,4,4,1,4,4,5,4,1,1,2,4,1,1,1,1,2,1,2,NA,NA,NA,NA,NA,NA,NA,NA,NA,NA,1,5,1,5,5,5,1,1,5,1,5,1,1,3,3,3,3,3,3,3,3,3,3,2,4,4,3,2,4,2,4,2,2,2,4,4,4,4,4,4,2,2,3,2,2,3,4,6,2,4,6,6,6,2,3,2,1,6,2,2,2,2,2,2,2,2,2,2,2,2,2,2,1,2,2,4,2,2,2,1,2,4,4,4,4,4,4,4,4,4,4,4,2,2,2,4,4,4,4,3,3,2,3,4,3,4,2,2,4,4,3,4,3,4,2,5,6,7,6,6,6,6,2,2,4,4,2,2,2,4,4,4,4,2,4,4,2,3,4,4,4,4,2,3,4,4,4,4,3,3,4,4,2,2,2,2,3,3,3,3,3,4,4,3,4,2,2,2,4,4,4,4,2,2,4,4,3,2,4
METU,1995,1,1,1,5,1.6,58,4,2,10,0,1,15,1,2,36.4,36.4,36.4,39.91169739,32.84030151,58,7,11:24:41,3,2,2,1,NA,4,4,4,1,4,4,6,4,1,NA,2,8,2,1,2,1,1,NA,1,NA,NA,NA,NA,NA,NA,NA,NA,NA,NA,3,2,3,4,2,4,2,3,2,2,4,2,4,3,3,4,3,3,2,3,3,3,3,3,4,4,3,3,3,3,4,3,4,3,1,4,4,3,3,4,4,1,2,1,2,2,4,6,1,1,3,4,3,1,2,2,1,1,1,2,1,1,4,1,1,3,3,5,5,4,3,4,4,3,2,3,5,2,4,5,6,2,2,4,4,3,4,4,3,3,2,2,5,7,7,7,7,5,5,3,5,2,5,3,2,5,5,5,5,2,1,2,3,2,2,5,4,2,2,3,2,2,2,2,4,4,3,4,3,3,4,3,4,1,2,4,4,2,4,5,3,3,5,5,3,4,4,4,4,3,4,3,2,3,1,4,5,4,3,5,2,3,4,2,3,4,1,4,3,4,4,4,3,4,3,3,3,2,5
Oxford,1995,1,1,2,6,1.8542,70.45454545,3,2,0,0,2,NA,1,2,36.1,36.7,36.4,51.75,-1.25,74,2.777777778,08:42:45,5,1,2,1,NA,4,1,5,NA,1,NA,5,4,1,NA,2,5,1,NA,NA,5,1,NA,1,NA,NA,NA,NA,NA,NA,NA,NA,NA,NA,3,2,2,3,3,4,2,2,2,2,2,3,4,4,3,4,3,3,3,3,3,4,4,3,4,3,2,2,3,2,4,3,3,4,4,4,2,2,2,2,2,2,1,1,1,2,2,6,3,5,6,6,6,3,3,5,2,5,5,3,4,1,2,6,1,2,2,2,2,2,1,2,3,3,1,2,2,1,2,3,1,1,2,1,1,2,1,1,1,1,1,1,7,2,2,2,5,5,5,2,3,3,3,2,2,3,4,2,3,2,2,3,3,2,2,2,2,1,2,2,4,1,5,1,2,5,4,5,2,2,5,3,2,2,1,2,5,2,2,2,2,4,4,5,2,4,3,5,1,2,4,1,2,4,2,4,4,4,4,1,2,4,4,2,3,2,1,4,3,3,2,3,4,5,2,2,4,2,2
Oxford,1995,1,1,2,2,1.73,65,3,2,1,0,2,NA,1,2,36.2,36.6,36.4,51.75,-1.25,74,2.777777778,08:03:04,5,1,2,1,NA,4,1,5,NA,3,1,8,5,1,NA,2,8,1,NA,NA,4,1,NA,2,Regional Societies,NA,NA,NA,NA,7,NA,NA,NA,NA,2,4,4,5,4,2,4,2,4,4,2,4,4,4,4,3,2,2,3,2,3,2,1,4,4,2,3,4,4,3,4,2,3,4,3,4,2,2,2,2,2,2,4,2,4,1,2,4,4,4,4,4,4,4,4,4,4,4,4,4,4,4,4,4,4,4,4,4,4,4,4,4,4,4,4,4,4,4,4,4,4,4,4,3,3,4,4,3,3,3,3,3,1,1,1,1,1,1,1,3,3,2,3,2,3,2,3,4,2,3,2,2,2,2,4,4,4,2,1,1,2,1,1,1,5,5,1,1,1,4,2,5,4,2,4,5,2,5,1,1,1,4,4,3,4,3,4,3,1,3,2,2,4,4,4,2,2,3,4,3,3,2,3,4,3,2,3,3,3,3,3,2,2,3,3,2,2,2,2
SMU,1995,2,2,1,7,1.67,58,4,2,0,0,2,NA,1,2,36.2,36.6,36.4,1.293106079,103.8558044,70,27,10:29:02,5,1,2,1,NA,4,4,5,NA,8,3,5,4,2,8,2,8,1,NA,NA,4,1,NA,1,NA,NA,NA,NA,NA,NA,NA,NA,NA,NA,2,2,2,4,2,4,1,2,2,3,3,3,4,3,3,4,3,3,3,3,3,3,3,3,3,3,3,3,4,2,5,4,2,3,5,4,2,4,2,2,2,2,2,2,2,4,2,5,5,5,6,6,4,2,4,4,5,4,5,2,2,4,6,6,5,4,3,2,2,4,2,2,2,2,2,2,2,3,2,2,2,2,3,4,4,4,4,4,4,4,4,4,3,5,5,5,5,4,5,4,5,3,5,2,3,4,5,4,4,3,2,3,3,4,3,2,2,5,3,3,3,3,4,3,5,2,1,2,3,4,2,5,5,2,4,5,2,4,2,1,3,3,3,2,4,5,3,5,3,4,4,3,1,1,1,2,2,4,3,4,2,4,2,4,4,4,3,4,3,4,4,3,2,3,3,3,3,2,5
Tsinghua,1995,2,1,1,7,1.62,46,2,3,2,0,2,0,1,2,36.4,36.4,36.4,31.45930481,104.7542114,70,14,11:40:42,7,3,2,1,0,4,4,5,0,3,4,3,4,1,1,2,6,2,1,4,3,1,5,1,Éç»á,¾ãÀÖ²¿,NA,NA,NA,3,2,NA,NA,NA,3,4,3,4,3,3,4,3,2,4,4,3,2,2,2,4,3,4,2,4,3,2,3,3,2,2,2,3,4,4,3,4,3,3,4,4,3,2,4,3,2,4,2,3,3,4,3,5,4,4,4,5,4,2,3,5,2,6,3,5,6,3,6,5,5,5,3,5,4,3,5,5,5,5,4,4,5,4,3,6,6,4,4,4,4,5,4,4,5,4,4,4,4,2,3,3,3,3,3,3,2,3,3,2,4,2,2,3,3,3,3,4,3,3,4,4,4,7,6,5,4,5,2,3,2,3,2,2,2,3,2,3,2,2,3,3,3,2,3,3,3,2,3,3,2,4,2,4,2,3,2,4,2,4,2,3,3,3,3,2,3,4,2,4,3,3,2,3,4,2,3,3,3,2,3,4,4,2,3
METU,1995,2,1,1,6,1.63,53,4,2,11,0,2,NA,1,2,36.3,36.5,36.4,39.91169739,32.84030151,64,6,10:32:38,3,2,2,1,NA,4,4,4,1,8,3,8,8,1,NA,2,7,1,NA,NA,3,1,NA,1,NA,NA,NA,NA,NA,NA,NA,NA,NA,NA,3,2,1,5,3,4,1,2,1,1,3,2,2,3,2,2,3,3,1,2,2,2,3,4,2,5,2,5,4,3,4,4,2,5,2,5,5,5,4,4,5,1,4,2,1,2,4,5,1,1,5,6,2,2,2,1,2,6,1,3,2,5,6,5,1,2,2,2,2,2,2,2,2,2,2,1,2,2,2,2,2,2,1,5,5,5,5,5,5,5,5,5,5,7,6,6,5,3,3,2,2,1,2,2,2,2,2,4,4,1,2,1,3,5,1,5,5,5,1,6,3,3,1,4,2,4,5,5,5,2,5,2,2,1,1,2,4,2,5,5,2,5,3,1,5,4,4,5,5,3,5,5,5,4,2,3,2,2,2,2,2,4,2,4,2,5,1,4,2,5,3,5,1,4,4,3,4,1,4
SMU,1995,1,1,1,4,1.72,78,3,2,0,0,1,1,1,2,36.3,36.5,36.4,1.293106079,103.8558044,70,27,09:40:22,5,1,2,1,NA,4,2,1,NA,1,NA,7,4,1,NA,2,8,1,NA,NA,1,1,NA,2,smux,projects,yolo,others,NA,7,5,7,7,NA,3,3,2,3,3,3,3,4,2,3,4,3,2,4,4,4,2,2,2,2,4,2,2,4,4,2,4,4,4,4,4,4,4,4,4,4,4,4,3,4,5,5,5,4,4,4,4,5,6,4,6,5,5,7,5,4,5,3,6,4,4,4,5,6,6,4,2,6,2,5,5,6,2,3,2,4,2,4,6,4,5,3,3,4,3,2,2,4,4,3,3,2,6,5,5,6,5,5,6,3,3,3,2,4,4,3,4,4,4,4,2,3,3,4,3,2,2,4,3,2,2,2,4,3,4,1,2,2,3,2,2,5,4,3,2,3,4,4,2,4,3,4,2,3,3,2,4,3,2,4,4,3,2,3,3,4,3,2,1,4,3,4,2,4,3,2,4,2,4,4,3,3,2,4,3,2,3,4,4
VCU,1995,2,1,2,6,1.7018,61.36363636,3,2,4,0,2,NA,1,2,36.38888889,36.44444444,36.41666667,37.55380249,-77.46029663,68,10.55555556,19:51:09,5,1,2,1,NA,4,4,5,NA,8,1,8,8,2,6,2,8,3,1,8,1,2,5,2,Sorority,Honor society,NA,NA,NA,55,15,NA,NA,NA,4,5,5,5,4,1,5,4,5,4,4,4,4,4,3,2,3,2,3,3,4,3,2,4,5,2,2,4,4,1,4,1,2,4,2,4,5,5,5,5,2,1,1,2,4,2,5,2,2,2,2,2,2,2,5,3,5,3,2,5,2,2,2,2,5,2,3,2,3,2,2,2,3,3,2,3,2,2,2,3,6,3,6,5,5,5,5,5,4,4,2,4,5,5,5,5,5,3,4,2,4,2,4,2,2,2,2,4,2,2,2,2,2,4,2,3,3,4,1,3,2,2,2,2,2,4,2,4,2,2,4,4,2,2,2,4,4,4,5,2,2,2,4,4,3,4,2,4,2,4,4,2,2,3,2,2,4,4,4,2,2,4,4,2,2,2,2,1,4,1,4,4,2,4,4,4,3,2,4
UCSB,1995,2,1,1,7,1.6764,61.36363636,4,1,0,0,2,NA,1,2,36.61111111,36.22222222,36.41666667,34.4329071,-119.8370972,64,6.111111111,NA,5,1,2,1,NA,4,2,5,NA,4,3,7,7,2,6,2,8,1,NA,NA,5,2,2,1,NA,NA,NA,NA,NA,NA,NA,NA,NA,NA,3,2,3,5,4,4,2,3,4,3,5,3,5,4,4,5,2,4,3,2,4,4,3,3,5,1,4,4,4,3,4,4,3,2,4,4,4,4,4,4,2,3,2,4,4,4,4,6,5,2,5,4,6,2,5,5,3,2,6,4,5,5,5,6,5,3,3,5,2,3,3,2,2,3,2,1,2,2,5,5,4,2,5,2,2,2,2,1,2,2,2,4,4,3,6,3,5,4,4,4,4,3,3,4,4,4,4,2,4,4,2,1,1,3,2,5,7,7,6,6,6,5,1,3,2,4,3,4,2,3,3,3,2,1,1,2,4,1,4,2,4,3,4,3,4,4,4,4,2,4,5,1,2,5,3,2,2,2,4,2,2,4,3,4,4,2,3,4,4,2,3,5,2,5,5,5,5,4,4
VCU,1995,2,2,1,7,1.7018,72.72727273,4,2,12,0,2,NA,1,2,36.44444444,36.44444444,36.44444444,37.55769348,-77.37689972,81,14.44444444,10:05:38,5,1,2,1,NA,4,4,5,NA,2,2,5,5,1,NA,2,8,3,1,3,1,1,NA,1,NA,NA,NA,NA,NA,NA,NA,NA,NA,NA,3,4,2,1,2,2,2,2,2,2,3,4,4,3,3,4,2,3,3,3,3,3,3,3,5,2,3,5,5,3,5,4,2,2,3,5,4,4,4,5,4,3,5,5,2,5,4,3,3,3,5,4,5,1,7,5,1,2,3,2,5,2,1,5,1,1,1,1,2,2,1,1,2,7,1,1,1,1,3,2,2,1,1,5,4,4,4,4,4,4,4,3,5,5,5,5,6,5,2,1,4,1,4,1,2,3,2,3,1,2,4,4,2,3,2,2,5,3,2,1,2,5,1,4,3,4,4,4,4,4,4,4,2,4,2,4,4,1,3,3,1,4,4,5,4,5,3,5,2,4,4,4,1,3,1,4,5,4,4,1,2,4,3,2,4,3,4,4,4,4,4,3,2,4,4,3,3,1,4
Serbia,1995,1,1,2,6,1.87,84,3,2,0,0,2,NA,1,2,36.3,36.6,36.45,44.87080383,20.64030457,56,6,12:16:24,6,1,3,1,NA,4,4,5,NA,1,NA,3,3,1,NA,2,8,1,NA,NA,1,1,NA,1,NA,NA,NA,NA,NA,NA,NA,NA,NA,NA,3,3,2,2,2,4,2,4,2,3,4,2,3,3,2,3,2,3,2,4,3,3,2,3,4,2,3,1,2,1,1,1,1,2,1,1,2,1,1,2,1,1,1,1,1,1,1,5,3,1,1,4,3,2,2,4,5,NA,1,1,4,2,1,2,1,4,3,4,NA,5,3,2,4,NA,NA,1,NA,NA,5,3,4,1,NA,4,3,3,5,4,3,3,4,4,6,5,5,5,6,6,6,4,3,1,4,3,4,4,4,1,3,1,3,4,3,3,4,2,2,2,1,2,1,1,2,4,2,3,1,2,3,3,3,4,4,3,3,3,3,5,4,5,3,4,3,3,3,3,2,3,3,3,4,3,2,3,3,3,4,3,2,2,3,3,3,4,4,3,4,3,3,3,4,3,3,4,3,3,3,4,4
Oslo,1995,1,1,1,5,1.8,91,2,2,0,3,2,NA,1,2,36.6,36.3,36.45,59.91670227,10.75,87,-1,10:44:01,4,1,1,1,NA,4,1,4,1,3,1,5,5,1,NA,1,NA,3,1,1,1,1,NA,1,NA,NA,NA,NA,NA,NA,NA,NA,NA,NA,3,2,3,4,3,2,2,2,2,2,3,4,4,3,2,3,1,2,1,3,2,2,2,3,4,2,3,2,1,1,1,1,1,1,1,3,2,2,2,2,1,1,1,1,1,1,1,1,1,1,2,4,2,1,1,1,2,7,1,1,1,1,3,1,1,1,1,2,1,2,1,1,1,1,1,1,2,1,1,4,2,1,2,5,5,5,5,5,5,3,5,5,3,4,4,4,4,4,4,2,2,1,2,3,2,2,2,1,1,2,2,2,2,3,2,4,5,4,1,1,3,5,4,4,4,4,2,1,2,3,2,5,3,3,4,4,4,2,2,4,3,3,4,4,5,5,3,4,3,5,5,3,1,1,1,1,1,4,4,3,2,1,2,5,2,3,4,4,4,5,5,3,2,5,3,5,4,2,2
Oslo,1995,2,1,1,7,1.73,64,3,2,1,0,2,NA,1,2,36.5,36.4,36.45,59.91270447,10.74609375,93,0,10:17:28,4,1,2,1,NA,4,4,4,1,5,3,6,5,1,NA,2,8,1,NA,NA,1,1,NA,1,NA,NA,NA,NA,NA,NA,NA,NA,NA,NA,3,4,3,4,4,3,4,3,4,3,4,4,5,3,4,4,2,3,2,3,3,2,2,4,2,2,3,2,2,2,2,2,2,2,2,4,4,2,3,3,2,2,2,2,2,2,2,5,2,2,2,6,4,2,5,3,2,3,2,2,2,5,3,5,1,3,2,5,3,2,2,2,2,2,2,3,2,2,2,4,4,2,3,5,4,4,5,5,4,2,4,4,3,1,2,2,3,3,3,4,2,4,4,4,4,4,3,3,2,2,2,2,3,2,2,3,3,3,1,1,1,1,2,4,2,4,2,2,3,2,2,5,4,1,4,5,4,4,1,4,2,3,4,4,4,4,4,5,4,4,4,4,1,1,1,4,2,3,2,2,2,2,4,3,4,4,3,4,4,4,3,2,4,4,3,4,2,2,2
Kassel,1995,2,1,1,7,1.68,60,5,2,0,3,1,2,1,2,36.5,36.4,36.45,51.31669617,9.5,78,8,09:59:25,1,1,2,1,NA,4,4,5,NA,7,5,8,8,2,1,2,8,1,NA,NA,1,1,NA,1,NA,NA,NA,NA,NA,NA,NA,NA,NA,NA,3,3,4,4,4,3,3,4,5,4,4,3,5,2,3,4,2,1,1,2,2,2,2,3,4,1,1,2,3,2,2,3,2,4,4,2,4,3,4,3,4,1,1,1,1,2,4,3,1,1,2,2,2,1,3,1,1,1,1,1,4,2,1,4,1,2,1,4,2,1,1,2,1,7,1,2,1,1,1,2,3,1,1,5,4,5,5,5,5,5,5,5,4,2,2,2,3,2,3,2,2,1,2,2,1,2,1,1,2,2,2,3,2,3,2,5,7,6,6,4,4,4,2,4,3,4,1,4,2,2,4,5,5,2,4,5,3,4,2,2,3,4,3,5,4,4,5,5,4,4,5,4,1,2,1,3,4,4,3,3,3,3,4,2,4,4,2,3,5,3,4,4,1,5,5,5,4,2,4
METU,1995,1,1,2,4,1.69,78,4,2,3,3,1,15,1,2,36.4,36.5,36.45,39.91169739,32.84030151,70,3,10:23:56,3,2,3,1,NA,4,4,5,NA,7,5,8,8,1,NA,2,4,1,NA,NA,1,2,3,2,agt,¨¹nifeb,NA,NA,NA,2,3,NA,NA,NA,2,1,2,5,2,2,1,1,1,2,2,2,2,4,4,3,4,4,3,4,4,4,5,4,4,3,1,4,4,2,3,4,2,2,2,2,3,4,2,3,2,2,1,1,1,2,2,2,1,1,1,6,2,1,1,1,4,7,2,1,1,1,4,1,1,3,1,1,4,5,1,1,4,2,2,2,3,1,2,2,2,1,2,4,1,4,3,2,2,2,2,2,4,2,2,2,2,2,2,2,4,2,4,4,2,2,2,4,2,2,3,3,2,2,4,4,6,7,6,6,6,5,4,2,5,4,2,1,5,5,1,4,4,2,4,5,4,4,2,5,4,3,5,4,5,5,4,4,2,3,3,3,2,2,2,1,1,2,2,2,3,4,4,4,4,4,4,2,2,4,5,4,2,3,3,2,2,1,4
Tsinghua,1995,1,1,2,4,1.73,70,3,2,0,0,2,0,1,2,36.4,36.5,36.45,30.58009338,114.273407,74,16,11:07:34,7,3,2,1,0,4,2,5,0,3,1,6,6,1,1,2,8,1,1,2,1,1,3,1,°®ÌìÊ¹¹«ÒæÉçÍÅ,NA,NA,NA,NA,2,NA,NA,NA,NA,4,5,3,4,4,2,1,3,2,2,5,2,4,2,2,2,4,2,1,3,4,3,3,2,5,4,1,4,1,2,4,4,2,2,2,4,4,2,5,4,1,3,4,2,2,2,2,7,7,6,6,7,1,6,4,6,7,2,5,7,6,7,3,6,2,6,3,1,2,2,1,1,1,1,3,3,1,2,1,2,1,1,3,5,4,4,5,5,1,2,1,1,5,5,5,6,6,6,5,2,2,2,2,1,4,2,2,1,4,2,2,1,1,2,2,2,2,4,1,2,3,4,5,5,5,5,1,2,4,5,1,5,2,1,5,2,2,4,2,4,2,1,4,4,2,1,1,2,1,2,2,1,4,4,3,2,5,4,3,5,5,5,1,5,5,1,1,2,5,1,1,1,2,4,2,2,3,4,1
Tsinghua,1995,2,1,2,7,1.6,50,2,2,0,0,2,0,1,2,36.3,36.6,36.45,30.66670227,104.0667114,62,15,11:09:42,7,3,2,1,0,4,2,5,0,3,1,4,3,1,1,2,2,1,1,1,1,2,1,2,NA,NA,NA,NA,NA,NA,NA,NA,NA,NA,3,3,1,4,3,3,1,1,1,2,2,1,2,4,4,3,2,3,3,3,3,3,3,4,4,3,4,3,4,2,4,1,1,4,3,4,3,2,2,2,3,2,2,2,3,2,3,6,4,4,5,4,3,4,4,4,4,4,4,4,4,3,4,5,4,4,2,3,4,4,4,5,4,4,4,4,4,4,5,2,5,4,4,4,4,4,4,4,4,4,4,4,4,2,4,6,6,6,6,4,4,4,2,3,4,4,2,2,4,4,3,1,2,2,3,2,2,3,2,2,2,2,2,4,4,4,1,4,3,3,4,4,3,2,2,4,4,1,4,4,2,2,3,3,4,3,4,4,4,3,4,4,2,2,3,3,4,4,3,3,2,3,2,4,3,4,2,4,4,4,3,2,3,4,4,3,4,2,4
SMU,1995,2,1,1,7,1.61,46,2,2,3,0,2,NA,1,2,36,36.9,36.45,1.293106079,103.8558044,71,26,10:36:44,5,1,2,1,NA,2,2,5,NA,3,2,7,8,1,NA,2,8,1,NA,NA,2,2,4,2,Volunteering group,NA,NA,NA,NA,3,NA,NA,NA,NA,3,3,4,4,3,3,1,3,3,2,3,3,3,3,3,3,3,3,3,3,3,3,3,3,3,3,3,3,3,3,3,3,3,3,3,3,4,3,3,3,3,3,3,3,3,3,3,4,4,4,4,4,4,4,5,4,3,3,3,5,4,3,4,5,4,4,4,5,3,4,3,4,3,3,5,5,5,4,4,3,3,4,5,4,4,4,4,4,4,4,4,4,4,5,4,4,4,5,4,3,2,3,3,3,2,3,2,3,2,2,4,2,2,3,2,3,2,4,1,1,1,1,3,4,4,3,3,3,3,3,3,4,3,3,4,3,3,3,3,3,3,3,3,3,3,3,3,3,3,2,3,3,3,3,3,3,4,4,3,3,3,3,3,3,3,3,3,3,3,3,3,4,3,3,3,3,3,3,3
Kassel,1995,2,1,1,5,1.63,81,3,2,1,0,2,NA,1,2,36.7,36.2,36.45,51.35879517,9.467697144,76,1,09:46:41,1,1,1,1,NA,4,4,4,2,6,2,6,3,1,NA,2,7,3,1,3,1,1,NA,1,NA,NA,NA,NA,NA,NA,NA,NA,NA,NA,1,1,2,5,3,5,1,2,1,4,3,2,3,2,3,3,4,2,2,3,3,4,2,4,4,2,3,4,3,2,3,3,2,4,3,4,3,1,4,3,1,1,2,2,1,1,4,3,2,1,2,2,2,1,1,2,1,2,2,1,2,2,2,3,1,1,1,2,2,2,1,2,3,3,2,2,1,1,1,7,4,1,2,4,5,4,4,5,5,3,5,5,6,6,6,6,7,5,5,3,2,1,3,4,2,3,2,4,2,3,2,2,2,1,2,3,4,5,2,4,3,4,2,2,3,5,3,3,1,3,4,4,3,1,3,4,2,3,2,4,2,4,1,4,3,4,4,3,3,3,4,4,1,1,1,2,3,4,3,2,2,4,3,3,4,3,1,4,4,4,4,4,1,3,4,4,3,1,2
METU,1995,2,1,1,1,1.68,52,4,2,6,0,2,NA,1,2,36.3,36.6,36.45,39.91169739,32.84030151,64,2,11:09:55,3,2,1,1,NA,4,4,4,2,1,NA,3,3,1,NA,2,8,1,NA,NA,1,2,8,2,psikoloji toplulu?u,k¨¹ba salsa dans grubu,toplum g?n¨¹ll¨¹leri vakf?,NA,NA,7,7,5,NA,NA,4,4,4,3,3,4,4,4,3,3,4,3,4,2,2,4,2,2,2,2,3,2,2,5,5,2,4,4,4,3,4,2,1,4,3,4,4,4,4,4,4,3,3,4,4,3,4,7,2,2,3,7,3,4,2,3,2,5,2,1,2,3,5,4,1,2,1,2,2,2,2,1,2,2,1,1,1,1,2,2,1,1,2,4,3,4,5,4,3,2,4,4,7,6,5,5,6,5,6,2,2,3,2,3,3,2,2,4,2,2,2,4,3,3,2,5,7,5,5,5,6,4,4,4,4,5,4,2,4,4,4,5,5,2,4,5,4,4,5,5,3,4,3,3,4,5,4,5,5,5,5,5,2,2,1,3,5,4,4,4,2,2,2,4,3,5,3,4,4,5,5,4,2,4,5,3,4,2,5
Tsinghua,1995,1,1,2,7,1.66,53,4,2,0,0,2,0,1,2,36.3,36.6,36.45,23.11669922,113.25,72,14,11:07:14,7,3,2,1,0,4,2,5,0,5,4,5,3,1,1,2,3,1,4,7,1,2,1,1,Ö¾Ô¸ÕßÐ­»á,NA,NA,NA,NA,NA,NA,NA,NA,NA,3,4,4,4,4,4,2,4,3,4,4,3,3,3,2,2,4,4,3,3,1,3,5,2,4,2,1,4,4,2,4,2,2,4,4,5,5,4,4,4,3,2,2,2,2,2,3,2,2,2,2,6,2,2,2,2,2,2,2,4,2,2,4,2,2,2,2,2,2,2,4,2,3,2,2,2,3,2,2,2,2,2,2,5,5,5,5,5,5,5,5,5,5,2,4,6,6,5,5,2,2,2,2,2,3,3,2,3,2,3,3,3,2,3,2,4,4,3,1,2,1,3,2,4,4,4,2,2,2,3,2,5,2,2,3,4,3,2,2,2,3,2,2,5,4,3,2,4,4,2,4,4,4,4,2,2,2,3,4,2,2,3,4,3,4,3,3,5,3,3,2,4,2,4,4,2,2,2,3
SMU,1995,2,1,2,6,1.57,44,2,2,0,0,2,NA,1,2,36.4,36.5,36.45,1.293106079,103.8558044,70,26,10:14:13,5,1,2,1,NA,4,4,5,NA,2,2,5,5,1,NA,2,8,1,NA,NA,1,1,NA,1,NA,NA,NA,NA,NA,NA,NA,NA,NA,NA,4,3,4,4,5,4,3,3,3,4,3,4,4,3,3,4,3,3,3,3,3,3,3,3,4,2,3,4,4,3,4,3,3,4,3,4,4,4,4,4,4,4,3,3,4,3,4,4,4,4,4,4,3,4,4,4,4,3,4,4,4,4,4,5,3,3,3,4,4,4,5,4,4,4,4,5,5,3,4,4,4,3,4,4,3,4,3,3,3,3,3,3,3,4,4,5,4,4,4,2,3,2,2,2,3,3,2,2,2,2,2,2,2,2,2,3,4,4,3,3,3,3,2,4,3,3,2,3,3,3,4,4,3,2,3,4,4,3,3,2,3,3,4,4,3,3,4,3,3,3,3,4,3,3,3,2,2,4,3,3,2,3,3,3,3,3,4,3,4,2,2,2,3,3,2,3,2,3,3
Kassel,1995,2,1,1,7,1.77,62,3,2,6,0,2,NA,1,2,36.3,36.6,36.45,30.66670227,9.5,49,15,10:08:52,1,1,1,1,NA,4,4,2,2,6,3,6,6,1,NA,2,8,3,2,6,1,1,NA,1,NA,NA,NA,NA,NA,NA,NA,NA,NA,NA,3,2,4,3,2,4,2,3,3,3,4,2,3,5,4,5,3,2,3,3,4,3,3,5,4,2,5,4,4,3,4,5,3,2,5,4,4,4,4,4,4,3,3,4,5,4,4,5,3,4,5,4,3,4,5,4,2,4,3,5,4,3,3,5,1,4,3,6,3,4,3,3,3,3,2,3,3,3,3,6,6,2,3,4,4,3,4,4,4,3,3,3,4,4,4,3,3,3,4,4,4,2,4,3,3,4,4,2,3,2,2,2,3,4,2,4,5,3,3,4,5,4,2,3,2,4,3,4,3,3,4,3,3,1,2,4,4,2,2,3,2,3,3,3,4,4,3,4,2,3,4,2,2,3,2,4,4,4,4,3,3,2,3,4,4,2,2,2,4,2,2,2,3,4,2,2,3,2,1
Tsinghua,1995,1,1,1,7,1.68,55,2,2,0,0,2,0,1,2,36.4,36.5,36.45,51.31669617,104.0667114,71,12,11:05:20,7,3,2,1,0,4,2,5,0,3,1,4,4,1,1,2,8,1,1,8,1,2,1,2,NA,NA,NA,NA,NA,0,0,0,0,0,1,2,3,5,5,3,1,1,3,2,3,1,3,3,3,4,3,4,1,4,3,2,4,3,3,4,3,4,4,2,4,4,4,4,4,4,3,4,4,4,2,4,4,4,4,4,4,7,7,1,7,7,4,2,5,4,7,5,6,2,3,4,6,6,5,4,4,2,2,3,2,1,3,4,4,4,5,4,2,1,1,2,6,5,4,4,4,4,3,3,2,3,3,3,5,6,6,6,4,4,4,3,3,2,4,3,3,4,4,2,2,4,1,3,2,3,3,7,1,5,3,2,3,5,4,5,1,4,1,3,4,5,2,2,4,4,3,2,2,3,3,4,3,4,3,4,4,5,4,2,4,3,3,2,2,4,2,4,1,4,4,3,3,4,3,2,2,4,4,4,4,2,4,4,4,4,4,2,4
METU,1995,2,1,1,7,1.64,61,3,2,4,0,2,NA,1,2,36.2,36.7,36.45,39.91169739,32.84030151,69,6,10:53:02,3,2,2,1,NA,4,4,4,4,8,5,4,3,1,NA,2,8,1,NA,NA,1,1,NA,1,NA,NA,NA,NA,NA,NA,NA,NA,NA,NA,2,2,2,3,2,3,1,2,1,3,4,2,4,4,4,5,4,4,4,2,3,4,3,5,5,2,2,5,5,5,4,4,4,5,3,3,4,4,4,4,4,2,2,3,2,3,4,5,2,2,5,4,4,5,6,5,2,7,2,2,5,2,6,5,2,5,3,5,3,3,2,2,1,2,2,1,2,1,2,2,2,1,1,5,4,4,5,5,4,4,4,4,6,6,6,7,7,5,5,2,2,4,2,3,4,3,2,2,5,5,1,2,4,2,2,5,8,7,4,6,6,6,1,1,4,4,2,4,3,4,5,5,5,1,4,4,4,4,4,4,2,4,3,4,3,4,4,5,5,4,5,5,1,1,1,4,5,5,5,5,2,4,4,4,3,5,2,3,2,5,3,3,2,3,5,3,3,2,4
UCSB,1995,2,1,1,7,1.6256,54.54545455,4,1,0,0,2,NA,1,2,36.5,36.44444444,36.47222222,37.79570007,-122.4208984,78,14.44444444,NA,5,1,2,1,NA,4,4,5,NA,8,5,8,8,2,8,2,8,1,NA,NA,4,2,3,1,NA,NA,NA,NA,NA,NA,NA,NA,NA,NA,3,4,4,5,4,3,3,1,2,2,3,5,3,2,4,4,3,2,2,2,3,3,2,4,3,2,3,2,3,2,2,2,2,2,2,2,3,3,2,2,3,3,3,2,2,3,2,2,2,2,2,4,3,2,2,2,2,2,2,2,2,2,2,2,2,2,6,3,3,2,3,2,3,4,2,3,3,2,1,2,3,4,2,5,5,5,5,5,5,5,5,5,4,3,3,3,2,2,2,2,2,1,2,1,1,1,1,1,1,1,3,1,5,2,5,5,6,5,4,4,4,3,2,4,3,4,4,4,4,4,4,2,2,2,4,3,3,2,2,2,2,2,4,4,3,3,4,4,4,4,4,4,2,2,2,2,4,4,3,2,2,4,2,4,4,4,2,4,4,4,4,4,2,4,4,4,3,4,3
UCSB,1995,2,1,2,6,1.6256,100,2,1,3,0,2,NA,1,2,36.61111111,36.33333333,36.47222222,34.4329071,-119.8370972,80,8.333333333,NA,5,1,2,1,NA,4,4,2,1,8,1,8,6,1,NA,1,NA,1,NA,NA,1,1,NA,2,Lacrosse team,NA,NA,NA,NA,7,0,0,0,0,2,2,1,2,4,2,1,1,1,2,3,4,4,3,3,3,3,3,3,4,2,4,4,2,4,3,4,4,4,4,4,3,2,4,2,3,2,3,2,4,2,2,4,4,3,4,4,4,5,4,6,6,6,2,5,5,2,5,4,4,2,5,5,6,4,3,3,3,4,2,4,2,4,4,3,4,4,3,4,3,4,4,4,4,4,4,4,4,4,4,4,5,5,6,4,5,7,6,6,4,4,2,4,2,2,4,2,2,2,2,4,4,2,4,2,3,4,4,2,2,2,1,4,2,4,4,2,1,2,2,4,4,4,2,3,4,4,5,2,4,2,3,4,4,4,4,4,3,2,3,3,2,3,4,3,2,3,4,3,3,2,4,2,2,4,2,4,2,4,2,3,2,4,4,4,3,2,2,4
Portugal,1995,1,1,1,4,1.65,70,4,2,3,0,1,20,1,2,36.5,36.5,36.5,38.71670532,-9.133300781,42,13,11:31:12,8,1,2,1,NA,4,4,5,2,1,NA,4,4,1,NA,2,3,1,NA,NA,1,1,NA,1,NA,NA,NA,NA,NA,NA,NA,NA,NA,NA,3,4,2,5,3,5,5,5,2,5,4,5,5,4,5,4,3,2,1,2,1,4,2,5,4,2,4,1,3,1,1,1,1,1,1,1,4,1,4,3,1,1,1,1,1,1,3,2,3,5,4,1,6,5,7,6,1,6,7,2,6,2,6,6,6,4,4,6,4,2,1,3,4,4,1,4,4,4,1,5,7,4,1,5,5,5,5,5,5,5,5,5,7,7,7,7,7,6,7,1,3,1,3,1,1,1,3,1,1,1,2,1,2,1,3,5,8,7,8,5,7,8,1,5,5,2,1,5,4,1,5,4,5,1,4,4,5,4,5,5,3,3,3,3,3,3,3,3,1,5,4,1,4,1,3,2,1,5,2,5,2,2,5,5,1,1,5,4,4,3,5,5,2,2,1,4,2,1,3
Serbia,1995,2,3,2,7,1.75,75,4,2,4,0,2,NA,1,2,36.6,36.4,36.5,44.81860352,20.46809387,44,12,13:21:45,6,1,2,1,NA,4,4,5,NA,6,4,6,6,1,NA,2,8,1,NA,NA,3,1,NA,2,Ekoloska grupa,NA,NA,NA,NA,2,NA,NA,NA,NA,3,4,2,3,3,4,3,2,1,2,5,4,4,2,3,4,1,2,3,3,3,2,3,2,5,2,3,1,2,2,1,1,1,1,1,2,2,2,3,2,1,1,1,1,3,1,1,5,5,5,5,8,7,2,4,6,1,4,1,3,1,5,2,5,2,2,1,3,1,2,1,1,1,1,NA,1,NA,1,2,5,6,1,NA,4,4,4,4,4,3,3,4,5,4,4,5,3,4,4,5,3,3,1,2,3,1,3,3,4,2,1,2,4,1,3,2,3,4,4,3,3,4,4,1,2,2,4,4,5,4,4,5,2,4,4,4,4,5,3,5,5,5,5,4,4,4,4,1,1,3,2,3,5,3,4,2,5,5,5,3,4,2,2,2,4,3,5,2,4,5,5,5,5,3,5,3,5,5,2,4
Serbia,1995,1,1,1,2,1.86,76,3,2,0,0,2,NA,1,2,36.2,36.8,36.5,44.81860352,20.46809387,68,7,10:31:55,6,1,2,1,NA,4,4,4,2,3,1,4,3,2,1,2,5,1,NA,NA,1,1,NA,2,Trening,NA,NA,NA,NA,3,NA,NA,NA,NA,4,4,4,4,2,4,2,3,4,4,4,3,4,3,3,2,2,2,3,2,3,2,3,3,3,2,4,3,3,2,3,2,2,2,1,2,3,3,4,2,2,3,2,3,3,3,4,4,2,2,3,2,2,3,4,6,2,6,2,3,2,2,2,2,2,4,3,3,NA,3,4,3,3,6,NA,6,NA,5,2,6,6,NA,NA,4,4,4,4,4,3,2,4,2,2,2,2,2,2,2,2,2,3,3,3,3,2,2,2,2,2,2,3,2,2,2,4,2,4,1,1,1,3,1,3,3,4,4,2,2,3,4,2,4,3,4,3,3,4,3,4,2,3,3,4,3,3,4,2,2,2,4,4,4,3,4,2,2,3,3,3,4,3,2,3,3,2,3,3,3,2,3,2,4,3,4,3,3,3,4,2
Serbia,1995,2,1,2,1,1.68,47,5,2,1,0,2,NA,1,2,36.4,36.6,36.5,44.81860352,20.46809387,83,4,10:32:11,6,1,2,1,NA,4,4,5,NA,6,4,5,5,1,NA,2,8,1,NA,NA,3,1,NA,1,NA,NA,NA,NA,NA,NA,NA,NA,NA,NA,5,3,4,5,5,1,3,4,5,5,5,5,4,2,3,2,1,2,2,2,3,2,1,3,3,2,5,3,3,2,2,2,3,2,1,3,4,4,3,4,4,3,2,3,2,3,3,2,2,2,5,8,4,2,2,4,2,4,2,2,2,2,3,4,2,4,3,8,3,4,4,4,NA,3,3,4,3,3,4,4,6,NA,NA,5,4,4,4,4,3,4,3,4,3,3,1,1,2,2,3,3,2,3,2,3,3,2,2,2,2,2,2,2,2,2,2,3,3,4,3,2,4,5,3,3,2,4,3,4,4,4,4,4,3,4,2,3,2,4,5,4,4,4,2,3,4,3,2,2,2,2,3,3,1,2,2,4,3,1,5,3,3,4,4,3,5,4,2,3,4,3,4,3,2,4,2,3,4,2,4
Serbia,1995,2,1,2,5,1.72,65,2,1,2,0,2,NA,1,2,36.5,36.5,36.5,44.81860352,20.46809387,58,4,10:41:14,6,1,2,1,NA,4,4,5,NA,4,3,7,7,1,NA,2,2,1,NA,NA,1,1,NA,1,NA,NA,NA,NA,NA,NA,NA,NA,NA,NA,3,2,1,2,4,4,1,1,2,1,2,2,4,3,3,4,3,3,3,4,4,4,3,3,3,4,4,2,4,2,2,3,2,1,3,4,1,1,1,1,1,1,1,1,1,3,1,3,2,3,5,5,4,2,4,3,4,NA,4,5,4,4,5,3,2,5,5,8,NA,5,2,4,NA,3,5,3,5,5,3,6,6,NA,3,4,2,4,4,2,4,4,4,4,5,5,6,6,5,5,6,2,2,2,2,2,2,2,2,2,2,2,2,2,2,2,2,1,3,4,1,3,1,3,1,5,4,2,1,5,2,2,5,5,5,5,1,1,5,5,3,4,2,4,2,2,5,4,1,2,1,4,5,2,4,5,1,3,4,5,4,4,2,2,2,4,4,2,1,3,4,1,1,4,1,4,4,2,2,1,4
SMU,1995,2,1,2,1,1.7,58.9,4,2,0,0,2,NA,1,2,36.4,36.6,36.5,1.293106079,103.8558044,71,26,10:09:19,5,1,2,1,NA,4,4,5,NA,1,NA,4,4,2,8,2,8,1,NA,NA,1,1,NA,1,NA,NA,NA,NA,NA,NA,NA,NA,NA,NA,2,2,2,1,2,4,2,2,2,4,3,2,2,3,4,3,2,3,2,2,4,3,2,4,4,2,4,2,4,2,4,2,2,2,4,2,4,4,4,4,4,1,2,1,4,4,4,2,2,2,3,5,5,2,2,2,2,2,2,4,6,1,4,1,2,2,2,2,2,2,3,2,2,2,2,2,2,2,2,2,3,4,2,5,4,4,4,4,4,4,4,4,7,4,4,4,4,4,4,2,2,2,2,2,2,2,2,2,2,2,4,4,4,5,4,1,3,2,2,2,3,2,4,4,4,4,2,2,4,4,2,4,2,4,2,4,4,4,4,4,1,2,4,4,4,3,3,4,4,3,2,1,2,3,2,2,2,2,4,2,4,4,4,4,4,2,4,4,4,2,2,4,2,2,2,3,3,2,2
METU,1995,1,1,2,4,1.8,105,2,2,NA,NA,1,15,1,2,36.5,36.5,36.5,39.91169739,32.84030151,69,6,10:57:42,3,2,2,1,NA,4,4,5,NA,5,2,6,4,1,NA,2,8,1,NA,NA,1,1,NA,1,NA,NA,NA,NA,NA,NA,NA,NA,NA,NA,2,2,1,1,2,3,1,2,2,2,2,2,3,4,4,3,3,3,3,4,4,4,3,3,3,2,3,2,2,2,4,4,2,3,2,4,2,2,2,3,2,1,4,3,1,2,2,4,4,4,4,4,4,4,4,4,4,4,4,4,4,4,4,6,4,4,4,4,4,2,4,4,4,4,4,4,4,4,4,4,4,4,4,4,3,4,3,3,4,4,4,4,6,7,5,6,7,6,5,2,4,3,3,2,4,4,4,3,4,3,2,3,3,2,2,5,4,5,3,1,1,1,4,3,4,4,3,4,2,3,4,4,3,2,4,2,2,4,3,4,3,4,4,3,4,4,4,3,3,3,3,3,4,2,3,3,4,2,3,2,3,4,4,4,4,3,2,3,2,3,3,4,2,2,3,2,3,3,3
Kassel,1995,2,1,1,7,1.63,55,3,1,0,0,2,NA,1,2,36.5,36.5,36.5,51.335495,9.49130249,88,0,11:06:22,1,1,1,1,NA,4,4,4,1,8,6,7,7,2,1,2,8,1,NA,NA,1,1,NA,2,Reitverein,Sport,-,-,-,4,2,0,0,0,3,3,3,4,4,4,1,4,1,4,4,2,5,3,3,3,3,2,2,4,3,3,3,4,4,3,3,3,4,3,3,2,2,3,3,2,2,3,3,1,2,2,1,2,1,2,2,1,1,2,2,1,3,1,4,2,2,2,1,2,1,7,2,4,2,6,6,6,6,2,6,6,4,4,7,4,6,6,4,7,7,6,5,5,4,5,5,3,4,3,4,4,2,3,3,3,3,3,3,2,3,1,4,1,1,2,3,3,2,2,2,4,2,4,2,4,7,3,3,2,2,5,3,3,2,5,4,2,3,1,2,3,1,1,3,5,5,1,2,4,1,4,4,4,4,3,3,3,4,3,3,4,4,2,4,3,2,5,3,3,3,3,4,4,2,2,3,4,4,2,2,1,4,1,3,4,3,5,3
SMU,1995,2,1,1,7,1.62,55,4,2,0,0,2,NA,1,2,36.5,36.5,36.5,1.293106079,103.8558044,70,27,10:35:32,5,1,2,1,NA,4,4,5,NA,5,4,8,4,2,4,2,8,1,NA,NA,1,2,1,2,Accounting Society,NA,NA,NA,NA,6,NA,NA,NA,NA,3,2,5,3,4,4,4,4,4,3,4,3,4,3,4,5,3,2,3,1,5,3,3,3,5,2,4,2,4,2,4,3,4,2,3,3,4,4,4,1,3,2,2,4,2,2,4,2,2,2,3,2,2,2,2,2,2,2,2,2,2,2,2,5,2,3,2,2,1,2,3,5,2,2,1,2,2,2,4,2,2,2,1,5,5,5,5,5,5,5,5,5,6,6,6,6,6,6,6,2,4,1,4,4,1,2,3,2,2,3,2,2,2,3,2,5,6,6,3,3,4,4,2,5,5,3,1,2,4,2,2,5,5,3,5,5,3,5,2,2,4,4,5,3,4,4,4,4,4,3,4,4,3,2,2,2,2,2,4,2,2,4,2,4,4,2,4,4,4,3,3,5,2,5,4,3,1,2,5
Kassel,1995,2,1,2,4,1.57,52,2,2,NA,0,2,NA,1,2,36.3,36.7,36.5,51.31669617,9.5,78,8,10:15:28,1,1,2,1,NA,4,4,5,NA,1,NA,8,8,2,4,2,8,1,NA,NA,3,2,3,1,NA,NA,NA,NA,NA,NA,NA,NA,NA,NA,2,2,3,5,1,1,1,1,1,2,2,1,4,5,3,5,3,4,4,4,4,3,4,4,4,3,4,4,4,3,4,3,4,2,2,4,4,4,2,4,4,2,4,2,1,3,4,5,6,4,6,5,4,4,7,6,4,6,4,4,4,7,4,5,4,3,6,2,6,6,5,7,7,7,3,6,4,4,7,4,3,6,6,3,2,2,2,1,3,1,2,3,7,7,7,5,7,5,6,3,3,4,2,3,4,4,4,2,4,4,1,2,2,2,1,5,8,6,5,4,5,3,1,3,1,5,4,5,3,2,4,2,2,1,1,3,4,1,3,4,2,5,1,2,5,5,5,4,1,4,3,1,2,4,2,4,4,4,3,1,2,4,3,3,5,3,1,4,4,4,4,4,2,4,5,3,4,3,5
Tsinghua,1995,2,1,2,7,1.57,45,2,2,0,2,2,0,1,2,36.5,36.5,36.5,30.58009338,114.273407,74,16,10:50:09,7,3,2,1,0,4,4,5,0,5,1,8,3,1,1,2,3,3,2,2,1,2,1,1,14½ÌÓý°àÎ¯»á,NA,NA,NA,NA,6,NA,NA,NA,NA,4,3,2,4,5,2,2,2,2,2,3,2,2,3,3,3,3,2,2,3,3,2,4,3,4,3,3,4,4,2,4,3,1,4,4,4,3,4,4,5,4,1,2,2,1,4,4,2,5,5,6,6,5,5,5,2,2,2,5,5,2,6,6,6,5,4,2,5,3,2,2,6,2,5,2,2,2,3,5,3,3,3,2,4,4,3,4,4,3,3,3,4,2,2,2,4,2,3,2,2,3,3,2,2,4,4,2,4,3,3,3,4,2,4,1,5,2,1,3,4,1,6,2,2,4,4,3,3,2,3,4,4,2,4,3,4,3,2,2,4,4,2,3,3,4,4,4,4,4,3,4,4,3,1,2,2,3,4,4,3,2,4,3,4,2,4,3,4,4,2,2,4,2,3,4,4,4,2,4
Tsinghua,1995,1,1,2,5,1.73,55,3,2,0,0,2,0,1,2,36.3,36.7,36.5,30.58009338,114.273407,71,16,10:23:55,7,3,2,1,0,4,4,5,0,8,3,4,2,1,1,2,3,3,1,3,1,2,3,2,NA,NA,NA,NA,NA,NA,NA,NA,NA,NA,4,4,4,4,4,3,2,4,4,3,4,4,4,3,4,4,2,2,2,3,4,3,3,4,3,3,4,4,3,4,4,2,2,4,4,4,2,2,2,2,2,2,2,2,3,3,2,4,2,3,3,3,5,5,5,6,5,5,3,3,5,4,2,3,2,2,6,2,3,3,2,2,5,6,6,3,6,3,2,4,6,3,4,4,4,4,4,4,4,4,4,4,4,2,4,5,5,6,6,4,3,2,2,2,4,2,2,4,2,2,2,2,2,2,2,3,4,4,3,2,2,2,2,4,4,4,2,2,3,2,2,3,2,2,2,2,4,2,3,4,2,2,4,4,2,2,2,2,3,2,3,2,2,2,4,4,4,4,2,2,2,3,3,2,3,4,2,4,2,2,4,3,2,3,4,2,4,3,2
SMU,1995,2,1,1,7,1.63,50,2,2,0,0,2,NA,1,2,36.4,36.6,36.5,1.293106079,103.8558044,70,27,10:39:27,5,1,2,1,NA,4,4,5,NA,8,3,6,6,1,NA,2,8,1,NA,NA,2,1,NA,1,NA,NA,NA,NA,NA,NA,NA,NA,NA,NA,4,4,2,3,4,3,3,2,3,3,3,5,4,2,3,3,3,3,3,2,3,2,3,2,3,2,2,4,5,3,5,5,5,2,2,4,4,4,4,4,4,2,1,2,1,3,4,2,5,1,5,1,3,1,2,2,1,2,1,2,1,1,7,4,1,1,1,2,1,1,1,1,1,1,1,1,1,1,1,2,1,1,1,5,5,5,5,5,5,5,5,5,6,7,7,7,7,6,6,2,2,1,1,2,1,2,2,1,2,2,3,3,1,2,4,4,4,4,1,2,3,1,2,4,5,3,2,3,4,4,2,4,4,2,4,4,4,4,2,3,4,4,3,4,4,4,4,4,4,3,4,4,1,1,2,2,2,4,3,2,2,4,3,3,3,3,4,4,4,4,4,4,2,4,4,3,2,1,4
METU,1995,2,1,1,7,1.69,63,4,2,2,5,2,NA,1,2,36.3,36.7,36.5,39.91169739,32.84030151,64,6,10:05:05,3,2,2,1,NA,4,4,4,1,3,1,4,4,1,NA,2,8,1,NA,NA,1,1,NA,1,NA,NA,NA,NA,NA,NA,NA,NA,NA,NA,5,5,4,5,2,2,4,3,5,3,3,5,5,2,3,3,1,2,1,2,2,3,3,3,4,2,2,5,5,5,5,5,5,5,5,5,5,5,5,5,5,1,1,1,1,1,5,7,1,1,2,7,7,2,3,5,1,3,1,2,1,5,7,1,1,1,2,3,1,3,1,1,1,1,1,1,1,1,1,3,3,1,5,5,5,5,5,5,5,4,4,3,4,6,6,7,7,5,6,1,1,1,1,1,1,1,1,2,1,2,1,1,2,2,1,4,6,5,4,4,5,6,1,1,1,4,5,5,5,5,5,2,1,1,4,3,4,4,4,4,4,4,4,2,5,5,5,5,5,3,4,4,2,1,3,1,5,5,5,3,1,3,2,5,1,4,1,5,4,5,5,5,1,4,5,3,5,1,5
VCU,1995,2,1,2,7,1.5748,46.81818182,3,2,2,0,2,NA,1,2,36.5,36.55555556,36.52777778,37.66099548,-77.53119659,74,8.888888889,09:31:39,5,1,2,1,NA,4,4,5,NA,3,3,4,4,2,2,2,5,3,1,5,1,2,2,2,Social club,NA,NA,NA,NA,2,NA,NA,NA,NA,4,4,3,3,3,4,4,3,4,4,4,4,4,3,3,4,2,3,3,3,3,4,3,3,5,2,3,2,4,2,4,2,2,4,4,4,4,4,4,4,2,2,2,2,2,2,4,2,2,2,2,2,3,2,2,2,2,5,2,2,1,2,2,2,2,5,3,6,5,5,5,5,6,6,5,2,5,5,5,5,6,6,6,5,4,5,4,4,4,4,4,4,4,5,5,4,4,4,4,4,4,2,4,4,2,4,4,4,2,2,2,2,2,4,2,3,4,5,3,3,3,3,2,3,2,5,5,2,3,2,4,4,2,2,2,4,5,2,4,2,2,2,4,3,4,4,4,4,4,3,3,3,2,2,2,4,4,4,4,2,4,4,5,4,4,4,2,3,4,4,4,4,2,4,4,4,4,2,4
VCU,1995,2,1,1,7,1.651,75,3,2,0,20,2,NA,1,2,36.22222222,36.83333333,36.52777778,38.2723999,-77.59320068,82,10,11:18:51,5,1,2,1,NA,4,4,5,NA,7,7,3,3,1,NA,2,5,3,1,8,1,2,4,1,NA,NA,NA,NA,NA,NA,NA,NA,NA,NA,4,4,4,4,4,3,4,2,4,4,4,4,4,2,3,3,2,2,2,2,2,2,2,3,4,2,2,3,4,3,4,4,2,4,2,4,4,3,4,4,4,1,2,2,2,2,4,2,2,2,3,2,3,2,2,2,2,2,2,3,2,2,4,2,3,4,2,3,3,2,2,2,3,2,2,2,2,2,2,2,2,3,2,5,5,5,5,5,5,4,4,4,5,3,3,3,3,3,3,2,3,2,2,2,1,2,2,2,2,3,3,2,3,3,3,4,4,4,2,3,5,1,3,3,4,2,1,2,4,2,4,4,3,2,4,3,3,4,2,4,2,2,4,4,3,2,2,3,3,3,3,3,3,3,3,5,4,4,3,2,2,4,3,3,3,3,3,4,4,2,2,3,3,4,2,3,3,4,4
VCU,1995,2,1,2,6,1.7018,61.36363636,4,2,30,0,2,NA,1,2,36.44444444,36.61111111,36.52777778,37.55380249,-77.46029663,68,10.55555556,10:02:39,5,1,2,1,NA,4,4,5,NA,8,3,8,8,2,8,2,8,3,1,8,1,2,6,2,Sorority,NA,NA,NA,NA,55,NA,NA,NA,NA,4,4,4,5,3,4,4,4,3,4,4,4,4,3,3,3,2,2,2,2,3,2,2,3,5,3,2,4,5,2,4,2,2,4,4,4,5,5,4,4,3,2,1,1,4,2,5,2,2,2,2,2,2,2,2,2,4,6,2,2,2,2,2,2,2,2,2,2,2,2,2,2,2,6,6,2,2,2,2,2,2,2,2,4,4,4,4,4,4,2,4,4,4,4,4,4,4,4,4,2,2,2,2,2,2,2,2,2,2,2,2,2,2,4,2,4,4,4,2,4,2,2,2,2,2,4,2,4,2,2,4,4,2,2,2,4,4,4,5,2,2,2,4,4,4,4,3,4,4,4,4,2,2,2,4,2,4,4,4,2,2,4,4,4,2,2,2,2,4,2,4,4,2,4,4,4,4,2,4
Tsinghua,1995,1,1,2,7,1.78,58,2,2,0,0,2,0,1,2,36.7,36.36,36.53,30.58009338,114.273407,78,17,10:49:51,7,3,2,1,0,4,4,5,0,4,4,5,3,1,1,2,8,1,1,1,4,2,1,1,Ñ§Éú»á,NA,NA,NA,NA,NA,NA,NA,NA,NA,4,2,3,3,3,2,2,2,2,4,4,3,5,3,3,3,3,2,2,3,3,3,4,3,4,3,3,5,4,3,4,4,4,4,4,4,4,4,4,3,3,4,4,4,4,3,4,3,6,6,3,6,4,6,6,4,5,4,6,4,6,5,4,5,4,6,2,4,4,3,4,4,4,4,2,2,2,2,4,4,4,2,4,3,3,4,3,4,4,1,3,5,6,1,5,4,4,5,6,3,2,3,2,4,3,3,2,3,2,3,2,2,3,2,1,3,3,4,3,2,2,3,1,5,4,4,1,4,1,1,3,5,4,1,3,5,5,1,5,5,1,1,3,5,3,2,2,4,3,3,4,4,4,2,1,4,4,4,1,1,1,3,4,4,4,4,1,4,3,2,2,5,5,5,3,5,3,1,1
SMU,1995,2,1,2,1,1.64,55,3,2,1,0,1,3,1,2,36.33,36.74,36.535,1.293106079,103.8558044,70,26,10:25:27,5,1,2,1,NA,4,4,5,NA,4,1,5,5,2,4,2,8,1,NA,NA,2,1,NA,1,NA,NA,NA,NA,NA,NA,NA,NA,NA,NA,1,2,1,3,1,2,1,1,1,2,2,1,3,4,4,5,1,4,4,4,4,3,4,4,5,4,5,3,4,2,5,3,3,4,4,4,5,4,5,2,2,2,4,4,2,4,3,5,5,4,5,5,5,3,5,5,3,6,2,5,2,5,2,6,2,6,5,5,4,5,3,5,4,2,4,3,6,4,5,5,5,3,4,5,4,4,4,4,4,4,4,4,7,6,6,6,6,5,5,4,5,3,5,2,3,4,5,2,4,1,1,1,1,4,2,5,6,6,2,2,2,2,2,5,5,2,1,1,2,4,2,5,4,2,4,5,5,5,2,4,2,2,4,4,2,4,2,3,3,4,4,3,3,3,3,2,2,4,4,2,2,2,2,2,3,2,2,4,4,2,4,2,3,2,4,2,2,1,3
Kassel,1995,2,1,2,7,1.74,75,4,2,2,0,2,NA,1,2,36.3,36.8,36.55,52.51669312,13.3999939,61,9,11:04:14,1,1,2,1,NA,4,4,5,NA,2,2,8,6,1,NA,2,8,1,NA,NA,1,2,2,1,NA,NA,NA,NA,NA,NA,NA,NA,NA,NA,2,2,1,3,2,5,1,3,2,1,3,1,2,3,3,3,2,3,4,2,4,3,4,2,5,1,4,1,4,1,3,2,2,1,2,3,4,4,3,4,3,1,1,1,2,1,4,4,6,4,4,6,7,5,7,4,4,4,3,4,3,7,4,6,4,7,4,7,5,7,4,5,4,6,5,4,3,5,5,6,6,3,4,5,4,5,5,5,4,2,5,4,5,5,6,5,4,4,5,3,4,3,3,4,4,2,4,5,2,2,3,2,2,4,4,5,5,5,4,4,4,1,2,2,3,5,4,2,3,2,2,2,3,1,4,4,4,3,4,5,3,5,5,2,3,3,4,3,3,3,3,4,2,2,3,2,1,4,1,3,4,2,4,5,3,3,3,2,4,2,2,2,4,3,2,2,4,1,3
Serbia,1995,2,1,1,7,1.7,58,3,2,6,0,2,NA,1,2,36.7,36.4,36.55,44.81860352,20.46809387,58,4,10:37:46,6,1,2,1,NA,4,4,4,1,3,3,4,4,1,NA,2,8,1,NA,NA,1,1,NA,1,NA,NA,NA,NA,NA,NA,NA,NA,NA,NA,4,4,2,4,5,4,1,4,3,2,4,4,4,4,4,5,2,1,1,3,4,2,2,4,4,1,3,3,2,2,3,2,3,4,2,4,4,4,4,4,4,2,2,2,3,2,4,2,2,2,5,5,8,2,5,NA,8,NA,5,5,5,5,5,5,2,3,NA,3,NA,2,2,2,NA,NA,3,NA,6,3,2,5,5,1,5,2,4,2,3,4,2,2,2,2,3,1,1,1,3,3,3,2,2,2,2,3,2,2,2,3,2,2,1,1,1,2,2,5,4,5,2,4,4,6,1,4,1,4,3,4,3,2,4,3,2,3,4,4,1,3,3,4,4,4,4,3,4,4,2,2,3,2,2,4,2,4,2,2,2,4,4,1,2,3,3,4,4,4,2,4,4,4,4,4,2,4,3,3,3,4,4
Chile,1995,2,2,1,6,1.5,43,3,2,0,0,1,NA,1,2,36.8,36.3,36.55,33.44999695,-70.66670227,55,12,10:54:08,2,1,1,1,NA,4,4,4,1,5,5,5,4,1,NA,2,6,4,1,1,1,1,NA,1,NA,NA,NA,NA,NA,NA,NA,NA,NA,NA,5,4,3,1,2,5,3,5,5,4,4,3,5,4,5,5,1,3,1,1,4,3,1,5,5,1,4,3,4,2,2,4,2,2,4,4,4,4,2,4,3,2,2,2,2,2,2,2,1,1,6,2,6,1,2,2,1,2,2,6,2,1,4,6,1,1,2,3,2,2,1,2,2,2,1,1,2,1,2,6,3,1,2,4,4,4,4,4,3,4,2,2,3,5,4,4,6,6,4,4,5,4,4,4,5,4,5,4,2,2,2,2,1,3,1,3,5,7,3,4,1,4,2,5,4,2,1,1,4,5,4,5,5,1,4,4,3,4,5,2,1,1,4,4,2,4,2,4,4,2,4,2,2,2,2,2,4,4,5,2,1,4,4,4,4,2,4,5,4,2,4,5,5,5,5,4,4,4,4
Serbia,1995,2,1,2,7,1.75,60,2,2,0,4,1,10,1,2,36.6,36.5,36.55,44.81860352,20.46809387,44,12,10:09:46,6,1,2,1,NA,4,2,5,NA,8,2,6,5,1,NA,2,4,1,NA,NA,1,1,NA,1,NA,NA,NA,NA,NA,NA,NA,NA,NA,NA,4,2,3,5,2,4,4,2,2,3,3,3,3,4,4,4,3,3,3,4,4,4,3,4,4,2,4,4,4,2,4,3,2,3,2,4,4,4,2,4,2,1,1,3,3,1,2,5,5,3,7,5,7,3,8,5,2,7,3,5,1,4,8,5,2,5,3,7,5,5,5,5,6,6,3,NA,5,5,5,7,7,3,5,4,4,4,5,4,4,4,4,4,5,6,5,4,7,6,6,4,4,1,3,4,2,5,3,3,2,4,2,4,2,3,3,4,5,4,1,3,4,3,4,4,4,4,2,3,3,3,3,5,4,5,3,4,2,2,4,3,4,3,3,4,3,3,2,2,2,4,5,3,4,3,2,2,2,2,4,2,3,2,5,4,4,2,3,5,4,2,2,5,3,4,3,3,3,1,1
Serbia,1995,2,1,2,6,1.65,47,3,2,0,0,2,NA,1,2,36.4,36.7,36.55,44.87080383,20.64030457,65,8,10:48:24,6,1,2,1,NA,4,4,5,NA,2,2,3,3,1,NA,2,7,1,NA,NA,1,1,NA,1,NA,NA,NA,NA,NA,NA,NA,NA,NA,NA,3,3,2,4,3,4,3,3,4,3,4,4,4,3,4,4,2,2,3,3,4,2,3,3,4,2,3,4,4,2,4,2,3,4,3,4,4,4,4,4,3,2,4,4,3,3,4,2,2,3,4,3,5,2,2,NA,2,3,2,3,2,2,5,4,2,5,3,7,4,5,4,3,5,4,4,3,4,4,4,7,7,4,4,5,5,4,5,5,4,2,3,3,3,5,4,4,4,4,4,2,2,2,2,2,2,2,2,4,2,2,2,2,2,3,2,3,3,2,1,2,3,3,3,3,2,4,2,3,2,2,2,5,2,3,2,3,4,4,3,3,4,3,4,3,2,2,2,2,2,3,4,4,2,4,2,2,3,3,3,4,2,2,2,2,4,2,2,4,4,2,3,4,4,4,3,3,4,2,4
SMU,1995,2,1,2,4,1.59,47,4,2,0,0,2,NA,1,2,36.5,36.6,36.55,1.293106079,103.8558044,71,26,11:00:15,5,1,2,1,NA,4,4,5,NA,1,NA,4,4,2,8,2,8,1,NA,NA,1,1,NA,1,NA,NA,NA,NA,NA,NA,NA,NA,NA,NA,4,4,3,5,5,1,3,4,5,4,4,5,2,2,3,3,3,2,2,2,2,2,3,2,3,2,3,3,3,3,3,3,3,4,4,4,4,3,4,3,4,2,2,2,2,2,3,4,2,4,5,5,3,4,5,6,3,2,2,4,2,2,5,4,2,3,5,4,4,4,4,4,3,3,3,4,4,2,4,4,4,3,3,5,5,5,5,5,5,5,5,5,2,4,4,4,3,3,3,2,3,2,2,2,3,4,3,2,2,2,4,4,2,4,2,3,4,5,4,4,2,2,2,3,4,4,3,2,2,2,4,4,4,1,3,4,4,4,4,2,2,3,4,3,3,2,2,3,5,3,3,4,3,2,3,1,1,2,3,2,2,4,3,3,4,3,2,4,3,4,3,3,2,3,4,3,3,2,3
Tsinghua,1995,2,1,2,7,1.6,65,3,2,0,0,2,0,1,2,36.3,36.8,36.55,30.58009338,114.273407,61,10,10:24:01,7,3,2,1,0,4,2,5,0,8,2,8,5,1,1,2,4,1,1,1,4,2,1,2,NA,NA,NA,NA,NA,NA,NA,NA,NA,NA,3,3,2,4,4,3,2,3,2,3,5,3,4,2,2,2,2,2,2,2,2,2,2,2,4,2,2,4,3,2,4,5,2,2,5,4,5,4,4,3,5,2,1,2,2,3,5,2,1,1,4,4,2,2,2,2,2,1,2,3,2,1,5,1,2,1,2,2,2,1,1,3,1,1,5,3,4,2,1,2,2,3,1,5,5,5,4,4,5,4,4,4,7,3,2,6,6,5,5,3,2,4,3,2,2,4,2,4,1,2,3,2,2,3,2,2,2,3,2,2,2,2,3,2,4,5,1,3,2,1,4,4,4,1,5,3,3,4,3,4,3,2,4,3,4,3,3,4,4,3,4,4,1,1,2,3,2,3,3,2,2,3,3,4,4,3,3,4,4,3,3,4,2,3,3,3,3,2,3
Tsinghua,1995,1,1,1,7,1.8,74,2,1,0.6,0,2,0,1,2,36.6,36.5,36.55,30.58009338,114.273407,72,14,09:58:49,7,3,2,1,0,4,4,5,0,1,0,4,1,1,1,2,1,1,8,1,1,2,1,1,ÉçÍÅÁªºÏ»á,NA,NA,NA,NA,20,NA,NA,NA,NA,3,4,4,4,4,4,2,3,2,3,2,4,4,2,3,2,3,3,3,3,2,4,4,1,3,4,2,3,4,3,4,4,4,3,3,4,4,4,4,4,4,2,4,3,4,4,4,2,3,3,5,5,3,3,6,6,3,2,3,5,5,6,3,5,3,6,3,4,3,3,4,2,3,3,3,3,5,3,2,4,5,3,3,4,4,2,3,3,4,4,4,4,6,4,4,5,5,5,6,2,2,2,2,4,2,4,4,4,4,2,2,2,2,4,2,2,2,1,2,2,2,3,4,4,4,4,2,2,4,4,2,4,4,4,2,2,2,2,4,4,2,2,4,2,2,2,2,4,2,4,4,2,2,2,2,2,4,2,2,2,2,4,2,2,4,2,4,4,2,4,2,2,2,4,2,4,4,4,2
Poland,1995,2,1,1,7,1.64,49,4,2,9,4,2,NA,1,2,36.5,36.6,36.55,52.41670227,16.96670532,81,0,10:15:52,9,1,1,1,NA,4,2,4,1,1,NA,4,4,1,NA,2,4,2,1,1,1,1,NA,2,moderatorzy forum internetowego,-,-,-,-,4,0,0,0,0,2,1,2,1,3,4,1,1,1,3,4,2,4,3,3,4,4,3,4,3,3,2,2,4,4,4,2,5,4,4,5,2,1,5,2,5,4,4,4,5,5,1,4,4,1,4,4,2,1,1,1,1,2,2,1,1,1,7,1,1,1,1,6,2,1,2,2,6,2,1,2,2,2,2,1,1,1,1,5,6,6,2,2,5,4,3,4,3,2,3,4,3,2,2,2,2,3,3,2,3,2,2,4,4,3,4,4,1,2,4,4,2,1,5,3,4,4,5,4,4,2,2,5,5,2,4,2,4,2,2,4,5,5,2,4,4,4,3,5,2,1,2,4,5,3,4,2,4,3,2,4,3,2,4,2,1,2,2,2,1,2,4,4,2,4,1,2,2,4,4,2,2,4,1,4,3,2,2,4
VCU,1995,2,1,1,6,1.4986,57.27272727,5,2,1,0,2,NA,1,2,36.5,36.61111111,36.55555556,37.55220032,-77.45819855,81,14.44444444,09:38:49,5,1,2,1,NA,4,4,5,NA,3,1,6,6,2,1,2,4,3,1,1,1,2,1,1,NA,NA,NA,NA,NA,NA,NA,NA,NA,NA,5,5,5,5,5,4,5,5,5,5,5,5,5,4,4,5,2,2,3,4,4,3,3,4,5,2,5,1,1,1,1,1,1,1,1,4,4,1,1,1,1,1,1,1,1,1,1,1,1,1,1,1,2,1,1,1,3,1,1,1,1,1,1,5,1,1,1,1,1,1,1,1,1,1,1,1,1,1,1,1,1,1,1,5,5,5,5,5,5,4,4,4,2,2,3,2,2,2,2,2,2,1,2,2,1,1,2,4,1,2,2,2,2,2,2,3,4,4,3,3,4,4,2,2,4,4,4,4,2,4,2,4,1,1,1,1,4,2,2,2,1,2,4,2,4,4,4,4,4,4,4,4,2,2,2,2,5,4,4,2,2,4,2,4,4,2,2,4,4,2,2,4,4,4,2,2,4,4,2
VCU,1995,2,1,2,7,1.7272,86.31818182,4,1,3,0,2,NA,1,2,36.5,36.61111111,36.55555556,37.55380249,-77.46029663,74,8.888888889,09:36:45,5,1,2,1,NA,4,4,5,NA,8,8,3,8,2,8,2,4,3,8,1,1,1,NA,2,Praise Dance Ministry,NA,NA,NA,NA,7,NA,NA,NA,NA,5,5,4,5,5,5,3,5,3,3,4,5,5,3,4,5,2,2,2,2,3,2,1,2,5,1,4,4,3,3,4,2,1,2,2,2,5,2,5,4,5,1,1,1,2,1,5,4,4,1,3,4,5,1,1,4,1,6,2,1,1,1,4,4,1,1,1,1,1,1,1,1,1,1,2,2,1,1,1,3,2,1,4,5,5,5,5,5,5,3,5,5,7,1,3,2,1,1,3,3,3,2,1,3,4,3,1,4,2,3,1,5,1,3,1,5,8,7,8,8,8,7,5,5,4,5,1,4,5,3,5,5,4,1,2,5,5,4,3,5,3,2,5,5,5,4,5,5,5,4,5,5,1,1,3,4,5,5,5,1,1,5,3,5,4,4,3,2,5,3,2,5,3,5,5,5,3,1,5
VCU,1995,1,1,1,7,1.8034,79.54545455,4,2,0,0,2,NA,1,2,36.83333333,36.28,36.55666667,37.55220032,-77.45819855,81,14.44444444,10:22:18,5,1,2,1,NA,4,4,4,1,8,5,3,3,1,NA,2,8,1,NA,NA,1,1,NA,1,NA,NA,NA,NA,NA,NA,NA,NA,NA,NA,5,5,4,4,5,5,1,3,4,1,4,5,5,2,2,3,4,1,1,2,3,2,3,3,5,3,3,2,4,2,4,2,2,2,2,3,4,2,4,3,4,2,2,2,2,2,4,1,1,1,1,1,2,1,1,1,1,1,1,1,1,1,1,1,1,1,1,1,1,1,1,1,1,1,1,1,1,1,1,1,1,1,1,5,5,5,5,5,5,3,5,5,2,4,4,4,4,4,4,1,2,1,1,1,1,1,1,2,1,1,4,2,2,1,3,4,4,4,4,2,3,3,4,2,5,5,4,2,3,2,3,3,2,2,2,2,2,4,2,3,2,4,2,3,4,5,3,5,5,4,4,4,1,1,1,2,5,3,3,2,2,5,2,4,4,3,2,5,4,3,3,2,2,3,3,2,3,3,3
UCSB,1995,2,1,2,1,1.5748,61.36363636,4,1,0,0,2,NA,1,2,36.55555556,36.61111111,36.58333333,34.43580627,-119.6828003,80,8.333333333,NA,5,1,2,1,NA,4,2,5,NA,8,5,6,6,1,NA,2,8,1,NA,NA,1,1,NA,1,NA,NA,NA,NA,NA,NA,NA,NA,NA,NA,1,1,2,1,1,1,1,1,1,1,5,1,3,5,4,5,1,1,2,1,5,4,5,4,5,5,5,2,5,2,5,5,1,2,5,5,5,1,5,5,1,1,1,1,1,1,5,7,7,7,7,7,7,7,7,1,7,1,7,7,7,7,7,7,7,7,1,7,1,7,7,7,1,1,1,1,1,1,7,1,1,1,1,5,5,5,5,5,5,5,5,5,7,6,5,5,5,6,7,4,5,1,4,5,5,3,5,5,3,4,1,5,3,4,1,4,3,5,5,5,6,5,5,2,2,5,5,5,1,2,5,2,5,1,1,5,5,1,5,5,4,5,5,5,5,5,5,1,1,5,4,4,5,4,5,5,5,5,5,5,5,5,5,5,5,5,5,5,5,5,5,5,1,5,5,5,5,5,5
Serbia,1995,1,1,2,4,1.9,90,5,2,2,0,2,NA,1,2,36.6,36.6,36.6,44.81860352,20.46809387,45,12,12:42:22,6,1,2,1,NA,4,2,5,NA,3,1,4,8,1,NA,2,4,1,NA,NA,2,1,NA,1,NA,NA,NA,NA,NA,NA,NA,NA,NA,NA,4,5,4,3,4,2,3,4,3,2,4,5,4,2,3,2,1,2,2,3,2,2,2,2,4,3,2,2,2,1,3,1,1,1,1,4,3,2,1,4,2,3,4,2,2,1,3,2,2,2,2,3,2,2,2,NA,2,NA,4,2,2,1,3,3,2,5,3,8,NA,5,4,4,6,NA,6,6,7,6,3,7,7,NA,5,3,3,2,5,4,3,2,3,4,6,5,5,3,3,3,4,2,2,1,2,2,2,1,2,4,2,2,1,2,2,2,3,3,4,2,1,1,2,7,5,4,5,4,1,2,1,1,1,5,3,2,3,2,3,2,2,2,2,3,3,3,2,1,2,2,2,4,4,2,4,4,2,1,4,5,4,4,1,2,4,3,4,2,3,3,2,2,1,1,3,2,1,1,1,4,1
METU,1995,2,1,1,6,1.6,51,2,2,10,4,1,3,1,2,36.7,36.5,36.6,39.91169739,32.84030151,66,5,11:21:24,3,2,2,1,NA,4,4,4,4,4,1,7,7,1,NA,2,8,1,NA,NA,1,1,NA,2,??renci toplulu?u,??renci toplulu?u,NA,NA,NA,4,5,NA,NA,NA,4,3,3,4,3,2,2,4,3,2,3,2,3,3,3,3,2,3,2,3,3,3,3,3,3,2,2,2,2,3,2,4,1,1,1,3,4,4,4,4,4,2,2,1,2,3,2,5,3,6,5,6,4,2,4,5,4,3,5,4,4,2,6,5,2,3,5,5,6,6,2,2,5,5,3,2,3,3,2,3,5,2,3,4,4,3,3,4,4,2,3,3,6,6,6,6,5,5,4,2,3,1,3,3,2,3,3,4,3,4,2,2,3,4,3,5,5,5,2,4,1,1,1,4,2,4,3,4,3,2,4,2,4,1,3,4,4,2,5,5,2,4,4,4,4,3,3,4,3,3,4,3,2,3,2,4,3,3,2,4,2,3,4,4,2,4,2,4,2,4,4,4,3,4,4,4,4,2,4
Serbia,1995,2,1,2,6,1.71,57,3,2,2,0,2,NA,1,2,36.4,36.8,36.6,44,21,45,12,10:50:02,6,1,2,1,NA,4,2,5,NA,1,NA,1,3,2,1,2,6,1,NA,NA,1,2,3,1,NA,NA,NA,NA,NA,NA,NA,NA,NA,NA,4,5,4,4,4,5,4,4,5,2,5,3,3,3,4,3,3,3,2,4,3,2,3,4,4,2,3,2,2,1,2,1,2,3,3,4,4,4,4,4,4,1,3,2,2,4,4,5,2,4,5,5,2,5,5,NA,4,NA,4,5,5,2,8,5,4,4,4,8,4,5,2,5,6,6,6,6,6,3,2,7,7,6,4,4,4,3,3,3,4,4,4,3,5,5,5,4,6,6,6,3,3,1,3,4,2,4,3,1,3,2,2,2,2,1,2,4,6,7,5,5,5,5,2,2,1,5,4,4,3,2,3,2,2,4,2,4,2,3,5,4,4,4,3,4,3,3,3,3,2,3,3,4,1,3,3,3,2,5,4,2,2,3,3,4,3,2,2,2,4,4,3,4,3,3,2,2,3,4,4
Bamberg,1995,2,1,1,7,1.59,55,4,2,0,0,2,NA,1,2,36.3,36.9,36.6,49.43609619,11.09249878,79,4,12:23:26,1,1,2,1,NA,4,4,4,1,8,3,8,8,1,NA,2,8,1,NA,NA,1,1,NA,1,NA,NA,NA,NA,NA,NA,NA,NA,NA,NA,3,2,4,4,3,4,3,4,4,4,4,3,4,2,3,3,2,2,2,3,3,3,3,4,4,2,2,2,2,2,4,2,1,1,2,4,4,3,3,3,2,1,2,2,2,2,2,3,2,3,2,3,5,2,2,2,5,3,5,3,2,5,5,4,2,2,2,3,2,3,2,2,4,4,2,3,1,3,2,4,4,2,4,5,5,5,5,5,5,4,5,5,4,3,5,5,4,2,3,2,3,2,3,4,2,3,2,2,2,2,2,2,1,2,2,5,8,6,6,6,4,6,3,4,4,4,2,2,1,1,2,5,4,2,3,4,3,2,2,2,2,4,4,4,4,4,4,3,3,4,3,3,2,2,2,3,2,4,3,4,2,2,3,4,3,3,3,4,4,4,4,4,2,3,2,3,2,2,2
Oxford,1995,2,1,2,5,1.7272,60,3,2,0,0,2,NA,1,2,36.4,36.8,36.6,51.75,-1.25,71,1.666666667,08:26:53,5,1,2,1,NA,4,4,5,NA,8,1,7,7,1,NA,2,8,1,NA,NA,2,1,NA,2,Boat club,Committee,NA,NA,NA,9,12,NA,NA,NA,1,1,2,2,1,1,2,1,1,4,3,2,2,2,3,5,3,3,2,3,4,3,4,3,5,4,4,4,4,2,4,2,2,2,1,4,4,4,2,5,1,1,4,4,1,1,2,1,1,1,1,1,4,1,1,7,5,1,1,1,1,5,1,1,1,5,3,6,2,3,6,7,1,2,1,3,2,2,7,7,2,2,7,4,5,5,5,5,5,2,4,4,6,7,5,6,7,7,6,5,4,1,4,5,4,4,4,5,5,3,1,2,3,2,2,5,7,6,3,6,4,6,3,3,4,5,1,1,4,2,2,5,2,2,4,4,3,4,3,5,5,3,2,4,3,5,5,5,5,4,2,5,5,1,5,4,5,5,4,3,2,4,2,4,5,5,1,4,4,4,4,4,1,4,4,4,1,2,4
Oslo,1995,2,1,2,7,1.72,61,3,2,NA,NA,2,NA,1,2,36.7,36.5,36.6,59.91270447,10.74609375,69,-4,10:50:41,4,1,2,1,NA,4,4,5,NA,3,3,8,8,2,3,2,8,1,NA,NA,1,1,NA,2,Kristen menighet,Kor,NA,NA,NA,2,4,0,0,0,3,3,3,4,4,4,4,4,3,4,4,2,3,3,2,2,2,2,1,2,2,2,2,2,4,1,1,3,4,2,4,2,2,2,3,4,4,4,4,4,2,1,2,2,2,2,2,4,4,4,4,4,4,4,4,4,4,4,4,4,4,4,4,4,4,4,4,4,4,4,4,4,4,4,4,4,4,4,4,4,4,4,4,4,4,4,4,4,4,4,4,4,4,5,6,5,6,4,4,2,2,3,2,2,3,3,2,2,2,2,3,2,2,3,2,4,4,5,3,3,2,3,2,4,3,5,4,4,3,2,4,2,2,1,2,2,4,2,2,3,3,3,2,1,4,4,4,3,3,4,3,3,3,2,3,2,4,3,3,4,2,2,2,4,4,3,2,4,4,4,3,5,2,2,4,4,4,2,2
Tsinghua,1995,2,1,1,7,1.6,48,2,1,0,0,2,0,1,2,36.6,36.6,36.6,30.66670227,104.0667114,86,16,11:10:35,7,3,2,1,0,4,4,5,0,4,1,5,4,1,1,2,3,1,1,1,2,2,1,2,NA,NA,NA,NA,NA,NA,NA,NA,NA,NA,3,1,2,2,4,4,1,3,2,1,3,1,4,4,2,5,3,3,2,3,4,2,3,4,4,4,2,2,3,2,4,3,2,4,4,4,4,2,3,2,2,2,2,2,2,2,4,7,7,7,7,7,7,7,7,7,7,7,7,7,4,5,7,6,7,5,2,1,1,2,1,1,6,7,1,7,3,2,2,1,1,1,7,4,2,4,4,1,4,4,3,3,6,3,4,7,7,7,7,4,4,5,2,2,5,2,4,2,3,2,2,2,1,3,2,5,6,7,3,6,2,3,3,4,1,1,2,3,4,2,2,4,2,1,2,4,4,4,2,4,4,4,4,3,2,4,4,3,2,3,4,2,2,4,4,4,4,2,4,2,1,4,2,4,3,4,4,4,2,4,4,4,4,4,4,3,3,2,2
Poland,1995,2,1,1,5,1.68,60,3,2,10,2,2,NA,1,2,36.6,36.6,36.6,50.31669617,18.78329468,86,-1,09:59:04,9,1,2,1,NA,4,2,4,1,8,6,6,6,2,8,2,7,2,1,1,1,1,NA,1,NA,NA,NA,NA,NA,NA,NA,NA,NA,NA,4,4,3,4,5,5,3,4,3,3,5,5,3,4,4,3,4,4,4,3,3,4,3,4,4,4,3,3,4,2,3,4,2,4,4,3,4,3,4,4,4,4,2,3,2,3,4,3,5,2,4,6,2,5,1,2,2,5,2,5,1,1,5,5,1,2,1,2,1,2,1,2,2,2,2,1,2,2,2,3,4,2,1,5,5,5,5,5,4,4,5,5,6,4,5,4,6,5,6,2,2,1,2,3,4,2,3,3,2,4,2,2,2,2,2,4,4,7,4,5,1,6,2,4,3,5,4,4,3,4,4,4,2,2,2,3,3,2,2,4,3,4,3,4,4,4,4,5,5,5,5,5,1,1,2,1,2,4,3,2,2,3,3,3,4,3,2,5,5,5,5,5,3,4,5,4,4,2,4
Serbia,1995,2,1,1,6,1.58,45,4,2,0,0,2,NA,1,2,36.4,36.8,36.6,44.81860352,20.46809387,44,12,22:52:48,6,1,2,1,NA,4,2,5,NA,4,4,5,5,1,NA,2,4,1,NA,NA,1,2,4,1,NA,NA,NA,NA,NA,NA,NA,NA,NA,NA,4,2,2,5,2,1,2,1,2,2,2,5,5,4,2,2,2,2,2,1,4,3,2,2,4,2,2,4,5,4,4,4,5,4,4,5,5,4,4,3,5,3,2,2,4,5,4,4,8,5,5,5,8,2,5,6,1,4,1,4,7,5,2,2,4,4,NA,2,1,5,2,2,1,NA,NA,1,NA,1,7,6,7,6,NA,4,4,4,4,5,2,2,4,4,3,2,2,5,4,4,5,4,2,2,2,4,2,4,3,5,2,2,2,2,2,2,2,4,3,4,3,3,4,4,4,3,2,4,1,1,4,4,2,4,4,2,4,4,2,2,4,4,4,5,5,4,5,4,1,1,1,2,4,4,4,2,1,1,5,5,5,5,1,5,4,2,2,4,2,4,4,4,4,4,4,4,5,5,5,2,5
Poland,1995,2,1,1,7,1.67,NA,3,1,3,4,2,NA,1,2,36.67,36.54,36.605,53.6000061,19.56669617,60,1,10:37:56,9,1,2,1,NA,4,4,4,4,8,8,5,5,2,1,2,8,3,1,5,1,1,NA,1,NA,NA,NA,NA,NA,NA,NA,NA,NA,NA,4,4,5,3,3,4,2,4,4,3,1,3,4,3,3,3,4,4,4,4,3,4,4,3,3,4,3,4,4,2,4,2,3,4,2,3,4,4,4,4,4,1,2,2,2,4,4,2,5,1,5,5,2,1,2,6,2,4,1,1,2,1,6,4,2,4,2,6,2,1,2,6,2,2,2,2,2,4,1,4,7,2,5,5,5,5,5,5,5,4,5,5,2,1,3,2,2,2,2,3,1,4,2,2,1,4,3,2,2,2,3,2,2,3,2,3,3,6,2,2,2,2,4,2,2,4,4,4,3,2,4,2,2,2,3,4,3,3,3,2,3,4,4,2,4,4,2,4,4,3,4,4,4,4,3,2,2,3,3,1,2,3,4,4,3,2,1,3,4,4,4,3,3,3,4,3,3,2,3
VCU,1995,2,1,2,7,1.5494,45.45454545,3,1,0,0,2,NA,1,2,36.72222222,36.5,36.61111111,37.55220032,-77.45819855,94,13.33333333,11:25:27,5,1,2,1,NA,4,4,5,NA,5,1,7,7,1,NA,2,5,1,NA,NA,1,1,NA,1,NA,NA,NA,NA,NA,NA,NA,NA,NA,NA,3,3,2,2,2,3,2,3,2,2,3,2,2,3,4,5,3,3,3,3,3,3,3,4,4,3,3,4,3,3,4,3,3,3,3,4,4,4,4,4,4,3,3,3,3,3,3,4,5,4,6,6,6,4,6,4,4,4,4,5,4,5,4,4,4,4,3,4,3,4,4,3,4,4,4,4,5,4,4,4,3,3,4,4,4,4,4,4,4,3,3,4,7,4,4,4,6,5,5,3,4,3,3,3,3,3,3,3,4,4,3,3,1,3,2,3,3,4,3,5,3,3,4,3,3,4,3,3,4,4,4,4,3,2,3,4,3,4,5,2,3,3,4,3,4,4,3,4,4,4,4,4,3,3,3,2,3,3,3,1,2,3,3,3,3,3,2,3,4,3,3,2,3,4,3,3,4,2,3
VCU,1995,2,3,2,4,1.6764,72.72727273,5,2,1,0,2,NA,1,2,36.72222222,36.55555556,36.63888889,37.13000488,-76.45030212,87,13.88888889,11:06:35,5,1,2,1,NA,4,4,5,NA,3,3,7,7,1,NA,2,5,3,5,7,1,2,5,1,NA,NA,NA,NA,NA,NA,NA,NA,NA,NA,2,1,4,2,2,1,1,2,2,3,4,2,5,5,4,5,2,2,2,3,4,2,3,4,5,4,4,1,3,1,4,1,1,1,4,1,4,4,4,5,4,1,1,1,1,1,5,2,1,1,2,1,1,2,3,2,1,2,2,1,1,1,1,1,1,1,2,7,5,3,7,7,6,6,3,6,2,2,6,6,6,6,6,4,5,5,5,5,5,5,5,5,6,2,4,5,5,4,5,1,1,1,4,1,1,1,1,1,1,2,2,2,1,2,2,5,7,6,7,7,5,1,2,1,4,3,4,4,3,3,5,2,2,4,1,1,4,1,5,3,2,1,4,4,4,1,2,1,5,3,2,5,3,2,4,4,5,4,4,1,1,3,4,2,5,1,2,4,4,1,1,1,2,4,1,1,2,2,4
UCSB,1995,2,1,1,7,1.5748,53.18181818,5,1,0,0,2,NA,1,1,36.05555556,37.22222222,36.63888889,34.4329071,-119.8370972,83,11.11111111,11:53:00,5,1,2,1,NA,4,2,5,NA,3,3,7,7,1,NA,2,4,3,1,4,5,1,NA,2,kp ucsb,NA,NA,NA,NA,7,NA,NA,NA,NA,4,4,2,2,4,4,2,2,3,1,4,4,3,3,3,3,1,2,2,2,3,2,2,3,4,1,2,2,4,2,4,3,2,4,4,2,4,4,4,4,4,1,2,2,2,2,4,2,2,1,2,1,2,2,5,2,1,6,2,2,2,2,1,2,2,2,2,3,2,2,2,2,3,2,2,3,2,1,1,4,2,1,2,4,3,3,4,4,3,2,2,5,1,1,1,1,1,2,1,1,2,2,2,1,2,2,2,2,2,2,2,4,2,4,2,4,4,4,3,5,2,4,4,2,3,3,2,2,2,4,3,4,2,2,3,2,2,2,2,3,2,3,2,4,4,4,2,4,3,4,4,3,2,2,2,2,2,4,4,4,2,4,4,3,3,3,4,4,4,3,2,2,2,2,2,2,2,4,2
Tsinghua,1995,2,1,2,7,1.58,60,3,2,0,0,2,0,1,2,36.6,36.7,36.65,30.58009338,114.273407,74,16,09:49:18,7,3,2,1,0,4,2,5,0,4,4,7,5,1,1,2,8,1,1,8,4,2,1,2,N,N,N,N,N,0,0,0,0,0,2,4,3,3,3,4,3,2,3,3,4,3,3,2,4,4,3,4,3,3,4,4,4,3,3,3,2,4,4,1,4,2,3,1,1,4,4,2,3,2,4,2,2,2,2,2,3,4,1,3,1,5,5,1,4,1,4,1,1,4,2,1,4,6,1,2,1,3,1,1,5,1,1,1,1,1,5,1,4,5,3,1,4,4,4,4,4,4,4,4,4,4,2,2,4,3,2,3,3,2,2,1,2,2,2,2,2,3,3,2,4,2,1,2,2,3,4,4,2,3,1,4,2,4,5,5,4,3,3,3,3,4,2,2,3,4,3,3,2,4,2,2,3,4,3,3,3,4,4,3,4,4,2,2,2,2,4,4,4,4,2,4,3,3,4,3,3,5,3,4,3,4,2,4,4,3,4,4,4
Oslo,1995,2,1,1,5,1.75,65,4,2,NA,NA,2,NA,1,2,36.7,36.6,36.65,59.89070129,10.5276947,95,1,11:00:24,4,1,2,1,NA,4,4,4,2,4,4,5,5,1,NA,2,6,1,NA,NA,1,1,NA,1,NA,NA,NA,NA,NA,NA,NA,NA,NA,NA,3,4,4,4,4,4,4,5,4,4,4,4,4,2,3,3,2,3,3,2,4,3,2,3,5,2,3,3,3,3,3,3,2,3,3,4,3,4,4,4,4,3,3,4,2,3,3,2,2,1,2,6,3,2,4,2,2,3,4,2,2,2,3,2,2,2,2,6,4,3,6,2,2,1,3,2,3,2,4,2,4,4,2,5,5,5,5,4,4,4,4,4,7,5,5,5,5,4,4,4,2,2,3,3,4,3,3,2,3,4,4,2,4,3,3,4,4,5,2,1,2,2,2,3,2,4,3,3,4,2,4,3,2,2,2,3,3,2,3,2,3,3,4,2,4,4,4,4,4,4,4,4,2,2,2,2,3,3,4,3,3,4,3,3,3,3,3,4,4,4,4,4,3,3,4,4,3,3,3
Tsinghua,1995,1,1,2,7,1.76,57,3,2,7,0,2,0,1,2,36.7,36.6,36.65,30.58009338,114.273407,87,17,10:49:15,7,3,2,1,0,4,1,4,3,5,3,3,3,2,3,2,3,3,3,5,4,1,4,1,½ÌÔºÖ¾Ð­,ÊýÑ§½¨Ä£,NA,NA,NA,5,4,NA,NA,NA,2,4,4,2,2,4,2,4,2,2,3,3,4,3,4,2,2,2,2,3,3,2,4,3,4,2,2,3,3,3,3,3,2,4,4,3,4,4,4,4,4,4,2,3,3,3,4,4,4,3,3,5,4,5,4,3,3,4,3,4,5,4,3,4,3,4,3,4,2,4,5,4,4,4,5,3,3,3,5,5,5,5,5,4,4,4,4,4,4,3,4,4,7,2,4,5,6,6,3,3,4,3,3,3,4,4,3,4,3,3,2,4,3,3,2,2,2,7,2,3,3,3,2,4,4,4,2,3,3,2,3,4,4,2,3,4,4,3,2,4,2,2,4,4,4,3,3,4,4,3,4,4,4,3,3,3,4,4,4,4,2,4,4,4,4,2,2,4,4,3,4,4,4,4,4,4,4,4,2
Serbia,1995,2,1,1,6,1.6,54.5,5,2,0,0,1,10,1,2,36.6,36.7,36.65,44.81860352,20.46809387,44,12,22:31:24,6,1,1,1,NA,4,4,4,1,7,5,8,8,1,NA,2,7,1,NA,NA,1,1,NA,1,NA,NA,NA,NA,NA,NA,NA,NA,NA,NA,5,2,2,4,4,4,2,1,4,2,5,4,4,2,3,2,2,1,1,4,2,2,1,2,4,1,2,2,4,4,3,5,4,3,1,3,2,4,1,4,1,3,4,4,1,3,4,5,1,2,5,4,5,2,3,NA,1,1,1,1,1,1,2,2,2,1,1,8,1,3,1,8,1,1,1,1,1,1,1,7,6,1,1,2,2,3,2,2,2,1,5,5,5,5,6,5,6,5,6,2,2,1,2,1,1,2,4,1,1,2,1,1,1,1,1,5,6,6,2,4,4,5,2,5,2,5,1,5,5,5,5,5,5,2,5,4,2,5,4,5,5,5,2,5,5,1,1,4,1,4,5,5,2,5,1,1,2,5,4,2,2,1,2,4,4,4,1,4,4,5,5,5,1,2,5,4,4,1,1
Serbia,1995,2,1,1,7,1.68,65,4,2,18,0,2,NA,1,2,36.7,36.6,36.65,44.81860352,20.46809387,45,12,22:19:52,6,1,1,1,NA,4,4,1,NA,2,2,4,3,1,NA,2,3,1,NA,NA,1,1,NA,1,NA,NA,NA,NA,NA,NA,NA,NA,NA,NA,4,3,4,5,3,4,3,3,2,2,3,2,2,4,4,4,2,3,3,3,3,3,3,5,4,2,3,2,3,3,3,4,4,4,2,4,5,5,5,3,4,1,1,1,3,3,5,4,2,1,1,1,5,8,1,4,1,7,1,2,2,1,1,4,1,1,1,2,1,4,1,1,7,NA,1,1,1,1,1,4,3,1,1,5,4,4,4,5,5,5,5,4,4,5,5,4,5,5,5,5,4,3,4,4,4,5,4,3,3,4,2,2,2,4,2,5,8,6,6,6,6,8,2,4,2,4,3,3,4,3,3,2,4,3,1,2,4,5,2,5,3,5,4,1,5,4,1,1,2,3,4,4,3,3,1,3,4,4,4,2,2,4,4,3,4,4,2,4,4,5,5,4,3,4,4,4,3,3,5
SMU,1995,2,1,2,7,1.7,53,4,2,0,0,2,NA,1,2,36.8,36.5,36.65,1.293106079,103.8558044,70,27,10:44:42,5,1,2,1,NA,4,4,5,NA,2,2,6,5,2,8,2,8,1,NA,NA,1,2,3,2,Sports Club,NA,NA,NA,NA,5,NA,NA,NA,NA,3,4,3,2,4,4,3,4,3,1,2,3,2,5,3,5,4,5,3,5,5,2,5,3,5,2,5,2,5,3,5,2,4,4,2,2,3,4,4,4,2,2,2,2,2,2,4,6,3,6,3,4,6,3,6,3,3,3,5,3,3,5,3,6,2,5,2,3,5,7,3,3,6,5,2,2,2,5,2,3,3,6,2,5,4,5,5,5,5,3,5,5,6,5,6,5,5,5,5,2,2,1,2,1,2,5,2,2,2,1,2,2,2,4,1,5,6,6,5,5,6,4,2,4,4,4,3,2,4,4,4,4,4,1,5,4,3,2,1,3,2,5,4,5,5,4,3,5,4,4,5,1,2,4,2,4,4,5,2,4,2,3,2,5,2,4,2,3,4,2,3,3,3,4,4,5,4,1,3
METU,1995,2,1,2,6,1.63,50,3,1,NA,NA,2,NA,1,2,36.5,36.8,36.65,39.91169739,32.84030151,74,12,11:29:24,3,2,2,1,NA,4,2,5,NA,2,2,5,5,2,2,2,6,1,NA,NA,1,1,NA,1,NA,NA,NA,NA,NA,NA,NA,NA,NA,NA,4,1,2,5,3,5,2,3,1,3,3,2,2,3,3,3,3,3,2,3,3,3,3,3,3,3,3,5,5,3,5,5,3,5,4,5,4,4,4,4,4,3,2,3,3,5,4,6,4,1,4,4,5,6,4,6,4,7,4,2,4,2,7,4,1,2,2,5,2,7,1,1,3,2,2,1,2,2,1,4,3,2,3,5,5,4,5,5,4,4,2,4,5,7,7,7,7,6,6,3,3,4,3,4,3,4,3,2,3,3,2,4,3,4,4,5,5,6,4,5,4,3,2,1,5,5,4,1,3,5,1,5,5,1,4,5,4,5,5,5,3,5,4,3,4,5,5,5,5,5,5,5,1,1,1,1,1,2,2,5,2,3,3,2,3,2,2,5,4,5,4,5,2,2,5,3,2,5,2
VCU,1995,2,1,2,7,1.6256,59.09090909,4,1,0,0,2,NA,1,2,36.72222222,36.61111111,36.66666667,37.34790039,-77.97239685,61,10.55555556,11:28:01,5,1,2,1,NA,4,2,5,NA,2,2,6,4,1,NA,2,4,3,1,8,1,1,NA,1,NA,NA,NA,NA,NA,NA,NA,NA,NA,NA,4,4,3,2,3,4,3,4,3,4,4,5,4,2,3,2,2,2,1,2,2,2,2,2,4,2,2,1,4,1,3,1,1,1,2,4,2,2,2,1,2,1,1,2,1,2,2,3,5,2,6,5,3,2,2,6,2,2,2,2,1,3,5,2,6,6,5,7,3,5,6,5,5,5,3,3,3,2,5,7,7,6,2,5,3,4,5,3,4,3,4,3,4,5,5,3,5,4,4,1,2,1,1,1,1,1,1,1,1,1,1,2,1,3,1,3,3,4,3,3,1,1,1,2,1,5,4,5,2,1,5,2,1,1,1,2,4,1,1,4,1,1,5,2,4,1,4,3,3,4,3,3,3,2,3,4,4,4,2,2,4,4,2,4,2,1,1,3,5,1,1,2,5,4,2,2,4,2,4
UCSB,1995,1,1,1,7,1.7018,54.54545455,5,1,4,0,2,NA,1,2,36.38888889,36.94444444,36.66666667,34.4329071,-119.8370972,47,9.444444444,10:52:00,5,1,2,1,NA,4,4,4,4,8,2,8,8,1,NA,2,8,1,NA,NA,1,1,NA,2,Taiwanese American Student Association,NA,NA,NA,NA,30,NA,NA,NA,NA,2,2,2,2,3,3,2,2,2,2,2,4,4,3,3,3,2,2,2,2,3,2,3,2,4,3,3,2,3,2,3,2,2,2,2,3,3,3,2,4,2,1,1,1,1,2,2,4,3,2,4,4,5,4,2,2,2,2,2,2,2,2,2,6,3,2,2,2,2,2,2,2,2,2,2,2,2,2,2,3,2,2,2,5,5,5,5,5,4,3,4,4,7,7,7,7,7,7,7,3,3,2,2,3,2,4,2,2,3,2,1,2,2,2,2,5,5,4,2,3,5,5,4,4,4,4,2,2,2,4,2,4,4,2,4,4,2,4,2,2,4,5,2,2,4,4,4,5,5,4,4,4,2,2,2,4,2,4,2,2,2,4,4,4,4,4,4,4,4,4,4,4,2,4,4,4,4,4,2
VCU,1995,2,1,1,7,1.6256,47.72727273,4,2,8,0,2,NA,1,2,36.38888889,36.94444444,36.66666667,37.55380249,-77.46029663,81,14.44444444,10:27:38,5,1,2,1,NA,4,4,4,1,5,5,6,6,2,8,2,4,1,NA,NA,2,2,1,2,NA,NA,NA,NA,NA,NA,NA,NA,NA,NA,5,4,5,5,5,5,5,5,5,5,5,5,5,1,3,3,1,1,2,1,3,2,2,3,5,2,1,3,5,4,4,3,2,5,2,4,4,4,4,4,2,2,2,2,2,2,2,2,2,2,2,1,4,1,1,2,1,2,2,2,2,1,2,1,1,1,1,6,2,2,1,1,2,2,1,2,2,1,2,6,6,2,2,4,4,4,4,4,4,4,4,4,3,2,4,2,2,2,3,2,2,2,2,2,2,2,2,2,2,2,2,4,1,3,2,4,5,6,5,5,5,5,2,4,2,4,2,4,2,4,2,4,2,2,4,4,2,4,4,3,2,2,5,5,3,5,4,4,4,4,4,4,2,2,2,2,4,4,2,2,2,4,3,3,4,2,2,4,4,2,2,2,4,4,2,3,3,4,4
VCU,1995,2,1,1,1,1.651,56.81818182,4,2,0,0,2,NA,1,2,36.38888889,37,36.69444444,37.55220032,-77.45819855,81,14.44444444,11:00:28,5,1,1,1,NA,4,4,4,2,6,2,8,5,2,1,2,8,3,1,8,1,1,NA,1,NA,NA,NA,NA,NA,NA,NA,NA,NA,NA,3,4,3,4,3,2,1,4,3,3,4,4,2,2,2,3,1,1,1,2,2,2,2,1,3,2,2,4,4,3,4,1,1,1,4,2,2,5,4,4,4,1,4,1,4,1,1,2,2,1,2,6,6,2,5,6,3,2,2,2,1,1,6,5,5,2,1,6,1,2,2,2,1,2,1,1,2,1,1,4,3,3,3,5,5,5,5,5,1,5,5,1,7,4,5,6,4,5,4,4,4,1,4,4,1,4,4,4,1,1,1,1,2,2,4,5,6,5,2,3,4,1,2,2,4,5,4,1,2,5,2,2,1,1,5,4,4,5,4,2,2,4,4,4,2,4,2,4,2,4,3,3,1,4,4,1,2,4,2,2,1,2,5,2,1,1,4,2,5,4,3,4,4,5,1,2,2,5,2
Tsinghua,1995,1,1,2,5,1.72,60,4,2,1,0,2,0,1,2,36.7,36.7,36.7,30.66670227,104.0667114,91,13,11:05:53,7,3,2,1,0,4,4,5,0,8,3,6,3,1,1,2,2,1,1,1,1,2,1,2,NA,NA,NA,NA,NA,NA,NA,NA,NA,NA,3,5,4,3,4,5,1,3,2,2,5,4,2,2,4,3,2,2,1,2,4,2,1,4,5,2,2,1,2,2,2,1,1,1,1,3,4,1,3,4,1,1,1,1,1,1,3,4,2,1,2,6,4,4,2,2,2,1,2,6,1,1,5,5,2,2,2,2,6,2,4,6,3,2,2,2,5,3,2,2,2,2,2,5,5,5,5,5,3,3,3,5,4,2,2,1,2,2,2,1,4,4,3,4,2,2,3,3,2,3,2,3,1,4,2,4,5,4,2,2,2,3,2,2,5,5,4,1,1,1,1,3,3,3,3,2,2,3,4,4,3,3,3,3,3,3,3,5,5,4,4,4,2,1,2,1,1,2,4,4,4,4,3,4,3,2,1,1,1,1,2,3,1,1,3,1,4,3,4
Tsinghua,1995,1,1,2,7,1.71,76,3,2,1,1,2,0,1,2,36.7,36.7,36.7,30.66670227,104.0667114,89,12,12:17:07,7,3,2,1,0,4,4,5,0,8,3,8,8,1,1,2,8,1,1,8,8,2,1,2,NA,NA,NA,NA,NA,NA,NA,NA,NA,NA,4,3,3,3,3,3,3,2,3,3,4,1,3,3,3,3,3,3,3,3,3,3,3,3,3,3,3,2,2,2,3,2,2,2,2,2,4,2,2,4,2,2,2,2,2,2,2,4,4,4,4,4,4,4,4,4,4,4,4,4,4,4,4,4,4,4,4,4,4,4,4,4,4,4,4,4,4,4,4,4,4,4,4,4,4,4,3,4,4,4,4,4,6,2,2,7,7,7,7,2,2,2,4,2,2,2,2,2,2,2,4,2,4,2,4,4,6,4,6,6,4,6,2,2,2,2,2,2,2,2,2,2,2,2,2,2,2,2,2,2,2,2,2,2,2,2,2,2,2,2,2,2,2,2,2,2,2,2,3,3,3,3,3,3,3,3,3,4,4,4,4,4,4,4,4,4,3,3,3
Serbia,1995,1,1,1,2,1.86,76,3,2,0,0,2,NA,1,2,36.8,36.6,36.7,44.81860352,20.46809387,68,7,10:46:57,6,1,2,1,NA,4,2,4,3,4,3,4,4,1,NA,2,3,1,NA,NA,3,1,NA,1,NA,NA,NA,NA,NA,NA,NA,NA,NA,NA,1,4,3,3,4,2,4,2,4,4,2,4,4,4,3,3,3,3,2,3,3,2,3,2,2,2,2,2,2,3,1,2,3,1,3,3,3,2,3,3,4,3,4,4,3,4,2,4,4,3,4,3,4,2,3,5,4,5,4,2,4,2,3,5,4,4,3,5,6,8,2,2,4,NA,4,5,6,4,5,4,NA,4,6,3,3,2,4,3,5,5,4,3,1,2,2,1,2,3,2,2,1,2,3,3,2,1,2,2,3,4,4,2,3,1,4,1,1,1,2,2,1,5,3,3,3,3,3,3,3,3,5,3,3,4,2,3,3,2,2,4,3,3,4,3,3,4,2,3,3,4,3,4,3,4,3,3,3,3,3,4,3,3,4,3,4,3,3,3,4,3,2,3,3,3,3,4,3,1,3
Tsinghua,1995,2,1,2,7,1.73,60,2,2,9,0,2,0,1,2,36.5,36.9,36.7,30.58009338,114.273407,66,13,10:27:16,7,3,2,1,0,4,4,5,0,8,1,8,8,1,1,2,8,1,1,8,1,2,1,2,na,na,na,na,na,NA,NA,NA,NA,NA,3,4,2,4,1,4,1,2,2,3,3,3,4,3,3,4,2,3,1,3,3,3,3,2,5,2,2,1,3,1,4,1,2,3,3,4,2,1,1,1,1,1,1,1,1,1,1,5,4,2,5,5,4,2,5,2,5,3,5,3,1,5,4,6,3,3,1,1,2,1,2,2,2,2,1,4,2,2,2,2,1,1,6,5,5,4,5,5,5,5,5,5,2,2,4,3,3,3,3,3,2,1,3,2,2,3,2,2,4,3,2,4,2,4,2,2,2,4,2,3,1,2,2,4,4,4,2,4,5,3,2,4,3,1,3,2,4,2,4,5,2,2,1,3,4,3,4,4,5,4,5,5,1,1,2,3,3,3,3,2,1,4,2,4,4,3,2,4,4,4,3,4,2,4,4,3,3,2,4
SMU,1995,2,1,2,6,1.76,54.5,4,2,0,0,2,NA,1,2,36.7,36.7,36.7,1.293106079,103.8558044,79,26,11:04:21,5,1,2,1,NA,4,4,5,NA,8,6,6,4,2,1,2,7,1,NA,NA,1,1,NA,2,VUCA Project Group,Business Law Project Group,NA,NA,NA,5,1,NA,NA,NA,4,4,5,4,5,4,4,4,4,4,4,4,4,3,3,4,2,2,2,3,3,2,2,3,4,2,3,2,4,2,4,4,2,3,2,2,3,2,4,3,3,2,3,2,3,2,4,6,3,4,5,5,5,4,3,3,2,3,4,5,2,3,6,3,2,3,3,4,3,4,3,3,3,4,3,2,4,3,3,2,3,3,3,4,4,4,4,4,4,4,4,4,5,5,5,5,3,5,5,2,2,2,2,2,2,2,2,3,2,2,2,2,2,3,2,3,4,5,1,4,1,3,2,4,4,4,2,3,3,4,4,4,3,2,3,4,4,3,4,4,2,4,4,4,4,3,4,4,4,4,4,4,2,2,3,2,3,4,4,2,2,4,3,3,4,4,2,4,4,4,4,4,2,4,5,4,2,2,4
Tsinghua,1995,2,1,2,7,1.6,55,3,2,0,0,2,0,1,2,36.7,36.7,36.7,NA,NA,72,14,11:45:55,7,3,2,1,0,4,2,5,0,8,2,5,2,1,1,2,6,1,1,8,1,1,1,2,NA,NA,NA,NA,NA,NA,NA,NA,NA,NA,4,3,3,4,2,3,1,3,4,4,4,3,3,2,3,3,3,4,3,4,2,3,4,2,3,3,2,3,4,3,4,2,3,3,4,4,4,4,4,4,3,3,2,2,2,4,4,6,5,5,6,5,3,5,5,5,4,5,3,4,2,5,3,5,3,2,2,3,2,3,3,4,3,3,4,2,5,2,5,2,3,4,4,5,4,4,3,4,5,3,5,5,4,1,5,3,4,4,5,2,3,2,2,2,3,4,2,3,2,3,3,3,2,3,2,5,3,7,6,6,4,3,1,5,4,4,1,5,3,3,4,5,3,1,2,4,4,1,4,4,3,4,3,4,4,3,4,3,3,2,3,3,3,3,3,2,5,4,4,2,2,4,3,4,4,3,1,4,3,2,3,3,3,2,2,2,2,2,4
Oslo,1995,2,1,2,6,1.64,57,4,2,0,0,2,NA,1,2,36.8,36.6,36.7,59.91270447,10.74609375,69,-4,09:53:25,4,1,2,1,NA,4,4,5,NA,4,2,7,7,1,NA,2,8,3,1,3,1,1,NA,1,NA,NA,NA,NA,NA,NA,NA,NA,NA,NA,2,4,4,4,3,3,2,3,2,4,4,3,4,3,2,3,2,3,3,2,3,3,2,3,3,2,3,3,3,3,4,4,3,4,3,4,4,4,4,4,4,3,3,3,3,3,3,4,4,4,5,5,5,4,4,4,4,4,4,4,2,5,4,4,4,2,4,5,5,4,3,5,4,4,4,4,4,4,5,4,4,4,4,4,4,5,5,5,5,5,4,5,3,6,5,5,5,4,4,2,3,3,3,3,2,2,3,3,1,2,2,3,2,2,2,3,4,4,1,1,2,3,1,3,2,5,4,4,3,2,3,3,2,1,3,4,4,2,3,3,3,3,3,3,4,4,4,3,3,3,3,3,2,2,3,2,4,3,2,3,3,2,2,4,4,3,3,4,4,3,4,4,2,4,3,3,3,3,2
SMU,1995,2,1,1,1,1.7,60,4,2,3,0,2,NA,2,2,36.6,36.8,36.7,1.293106079,103.8558044,79,26,10:48:38,5,1,2,1,NA,4,4,5,NA,8,6,8,6,2,1,2,8,1,NA,NA,4,2,4,1,NA,NA,NA,NA,NA,NA,NA,NA,NA,NA,2,2,3,3,2,3,1,2,2,3,5,2,2,4,3,4,1,2,2,3,4,3,2,3,4,2,4,4,2,2,4,4,4,4,4,4,4,3,5,4,2,2,4,2,3,3,4,2,2,1,5,3,4,2,2,3,4,2,2,2,5,2,5,6,2,2,2,5,2,2,2,3,2,2,1,1,1,2,2,2,2,1,2,5,4,4,4,4,5,5,4,4,5,6,6,5,7,6,6,4,3,2,3,2,2,2,2,3,3,3,3,3,2,4,2,5,8,7,6,6,6,6,3,5,4,4,2,2,4,4,5,4,2,2,3,5,5,4,2,2,4,4,3,3,3,5,5,5,4,4,4,4,2,2,2,2,2,2,3,4,2,3,3,4,5,4,4,4,5,4,5,4,3,4,4,4,3,3,4
Poland,1995,2,1,1,7,1.59,58,3,2,11,5,2,NA,1,2,36.7,36.7,36.7,52.41670227,16.96670532,87,2,11:03:24,9,1,1,1,NA,4,4,4,1,2,1,3,1,1,NA,2,3,2,1,1,1,1,NA,1,NA,NA,NA,NA,NA,NA,NA,NA,NA,NA,2,3,4,5,4,4,1,2,2,2,4,4,4,3,4,4,3,3,4,3,3,2,3,4,4,4,4,4,4,3,4,3,2,4,4,4,4,3,3,4,4,2,2,2,1,3,2,5,2,1,5,6,7,5,2,4,2,3,2,2,5,2,5,5,1,2,2,3,1,2,1,1,2,2,2,1,2,2,1,3,3,2,3,5,5,5,5,5,5,5,5,5,5,4,4,4,4,4,4,5,4,3,5,4,4,5,3,3,4,4,1,1,2,3,2,5,5,7,6,6,6,6,1,5,4,4,2,4,1,3,3,5,2,1,3,4,4,3,3,2,1,5,5,5,3,4,2,5,5,1,5,3,1,1,1,1,2,5,5,2,3,2,5,2,5,3,1,5,5,5,4,3,3,4,5,1,1,1,4
SMU,1995,2,1,1,4,1.55,42,4,2,1,0,2,NA,1,2,36.7,36.7,36.7,1.293106079,103.8558044,79,26,11:19:43,5,1,1,3,3,4,4,4,4,3,3,5,5,1,NA,2,8,3,3,6,3,2,2,1,NA,NA,NA,NA,NA,NA,NA,NA,NA,NA,2,2,3,5,5,1,2,1,2,4,2,4,4,5,4,4,2,1,3,3,5,3,4,5,5,3,3,4,4,3,4,4,3,3,3,5,3,5,4,4,3,3,3,3,3,3,3,4,5,5,5,4,4,4,5,4,4,4,4,3,3,4,4,5,4,4,4,4,4,4,4,5,3,4,4,4,4,3,3,3,4,4,4,5,4,4,4,4,4,4,4,5,7,5,5,4,4,4,5,3,4,3,4,3,3,4,3,4,3,3,2,3,2,3,3,2,2,4,3,3,3,3,4,3,4,4,4,4,4,4,4,4,4,3,4,4,4,4,3,2,4,4,4,3,4,3,3,3,3,4,3,3,3,3,3,3,3,3,4,3,2,4,3,4,3,3,3,3,4,3,3,3,3,4,4,3,3,2,4
Tsinghua,1995,2,1,1,5,1.6,53,4,2,6,0,2,0,1,2,36.4,37,36.7,30.58009338,114.273407,66,13,10:55:15,7,3,2,1,0,4,4,5,0,8,3,5,4,1,1,2,4,1,1,1,3,1,3,2,õÌÈ­µÀÐ­»á,NA,NA,NA,NA,4,NA,NA,NA,NA,3,4,4,5,4,3,1,5,4,3,4,4,4,3,4,4,2,2,2,2,3,2,2,3,4,2,2,4,3,4,4,4,5,4,3,4,4,4,4,4,2,4,2,2,2,2,4,2,1,4,2,2,2,2,2,2,2,1,2,2,3,5,2,5,1,3,2,5,3,2,7,7,2,4,2,1,6,2,7,2,5,1,3,5,5,5,5,5,4,4,4,5,3,1,1,4,3,3,3,2,2,4,1,2,4,4,2,2,3,2,2,2,1,2,2,5,5,3,5,5,5,5,1,1,5,4,2,2,2,4,3,5,4,1,3,5,4,2,4,4,5,4,2,5,5,4,4,4,4,4,4,4,2,2,2,2,5,4,2,2,1,3,4,5,4,5,5,4,5,5,4,5,5,4,5,5,2,4,2
UCSB,1995,2,1,2,6,1.6764,72.27272727,3,1,6,0,2,NA,1,2,36.66666667,36.77777778,36.72222222,34.0184021,-119.7252045,56,6.666666667,NA,5,1,2,1,NA,4,4,5,NA,8,4,6,5,1,NA,2,7,3,1,8,1,1,NA,1,NA,NA,NA,NA,NA,NA,NA,NA,NA,NA,2,2,4,2,2,2,2,3,2,4,4,4,4,2,3,4,2,2,2,2,1,3,2,3,4,2,3,2,3,3,4,3,2,2,4,4,4,5,4,4,5,1,1,1,3,2,5,2,2,2,2,4,2,2,5,4,2,2,2,2,2,3,2,2,5,5,2,6,5,4,4,5,4,4,3,3,3,2,3,5,5,3,4,5,5,5,5,5,4,2,2,2,4,4,5,3,5,4,6,2,2,2,2,2,2,2,2,3,2,2,3,2,2,3,2,5,5,6,5,3,1,4,1,5,4,4,2,1,5,2,2,4,2,2,4,4,2,4,4,2,1,1,4,4,4,4,4,3,3,4,3,4,2,2,3,2,5,3,4,2,2,4,4,2,3,1,4,4,4,2,2,2,2,4,3,2,2,2,4
UCSB,1995,2,1,1,7,1.7018,54.54545455,2,1,8,0,2,NA,2,2,36.72222222,36.72222222,36.72222222,37.55220032,-119.5223007,64,6.111111111,NA,5,1,2,1,NA,4,2,5,NA,3,1,8,4,1,NA,2,8,1,NA,NA,1,1,NA,2,Sorority,N/A,N/A,N/A,N/A,7,0,0,0,0,2,2,2,3,2,4,2,3,3,2,4,4,4,4,3,4,3,3,3,3,3,4,3,4,4,2,3,4,4,4,4,1,2,4,4,5,4,4,4,4,4,4,4,4,2,4,4,1,5,5,5,5,1,2,3,5,1,2,4,2,1,5,5,4,1,2,2,4,3,3,4,2,2,4,3,3,3,2,3,6,5,2,3,5,4,5,5,5,3,3,4,3,5,5,5,5,5,4,4,2,2,1,2,2,4,3,2,3,2,2,2,2,2,4,2,5,5,3,4,2,3,1,2,2,2,4,4,4,3,3,4,2,2,1,1,2,2,1,5,1,1,1,4,3,4,3,3,5,3,2,4,3,1,2,1,2,5,4,4,2,2,3,2,2,2,2,4,2,2,2,2,3,2,4,2,4,2,2,4
VCU,1995,2,1,1,7,1.651,47.72727273,5,1,30,0,2,NA,1,2,36.88888889,36.55555556,36.72222222,34.4335022,-77.45819855,94,13.33333333,10:48:00,5,1,1,1,NA,4,4,4,1,8,5,6,4,1,NA,1,NA,3,2,4,1,2,3,1,NA,NA,NA,NA,NA,NA,NA,NA,NA,NA,4,5,5,5,5,5,5,4,4,3,5,5,5,3,4,2,2,1,2,2,2,2,2,4,4,2,2,4,5,3,4,3,2,4,4,3,4,4,3,4,3,2,2,2,2,2,3,1,1,1,1,1,1,1,1,1,1,1,1,1,1,1,1,1,1,1,1,1,1,1,1,1,1,1,1,1,1,1,1,1,1,1,1,5,4,4,5,5,4,3,4,3,3,6,6,6,4,4,4,1,3,1,3,3,1,2,3,3,1,1,1,1,2,3,4,3,2,2,1,2,3,3,5,3,1,5,2,5,3,3,4,4,2,1,1,2,2,1,5,3,2,3,2,2,4,5,3,5,5,5,5,5,3,3,2,2,5,3,4,2,3,2,2,2,3,2,2,3,5,4,4,4,2,4,3,3,4,2,1
Serbia,1995,1,1,1,6,1.9,73,5,2,0,0,2,NA,1,2,36.75,36.7,36.725,44.81860352,20.46809387,56,6,11:06:57,6,1,2,1,NA,4,4,4,2,4,2,4,4,1,NA,2,8,1,NA,NA,1,1,NA,1,NA,NA,NA,NA,NA,NA,NA,NA,NA,NA,5,5,4,4,4,5,3,4,4,4,4,4,4,2,3,3,2,1,1,2,2,1,1,3,4,1,3,1,1,1,1,1,1,1,1,2,2,2,2,2,2,1,1,1,1,1,1,1,1,2,1,8,5,5,1,NA,1,NA,1,5,1,1,3,1,2,1,1,1,NA,1,1,1,1,NA,1,NA,NA,1,1,4,4,1,NA,4,4,4,4,4,4,4,4,4,4,4,4,3,3,3,3,3,1,1,2,2,3,4,2,2,2,2,1,1,1,1,1,4,5,5,2,2,6,6,4,2,1,5,5,4,5,3,3,2,1,5,2,3,4,5,4,5,5,5,4,3,4,4,1,1,4,1,2,1,2,4,1,2,4,5,4,3,3,4,4,5,3,5,2,4,4,5,5,2,4,5,4,2,5,3,4
UCSB,1995,2,1,2,1,1.8288,75,4,1,3,0,2,NA,1,2,37.01111111,36.44444444,36.72777778,34.50210571,-120.1287003,71,7.777777778,NA,5,1,2,1,NA,4,4,2,4,4,2,8,6,2,3,2,8,1,NA,NA,8,1,NA,2,Sorority,NA,NA,NA,NA,7,NA,NA,NA,NA,4,4,5,2,1,3,3,4,2,3,4,4,4,2,2,4,2,3,2,2,4,2,2,2,5,3,3,4,4,2,4,4,3,4,3,4,4,4,4,4,3,2,2,3,4,2,4,2,2,2,1,1,2,3,2,2,2,2,1,2,1,2,2,1,2,2,3,2,2,2,5,3,2,2,3,3,4,2,4,3,4,2,3,4,5,4,5,5,5,3,3,4,7,5,5,4,5,5,5,3,3,2,2,3,2,4,2,5,2,1,3,3,2,4,2,5,6,3,3,3,4,5,2,4,3,4,3,2,2,4,2,4,2,2,2,2,4,2,2,2,4,3,4,1,5,4,4,4,4,4,3,3,2,2,2,2,3,3,2,3,2,3,3,4,2,2,4,3,4,4,3,4,3,4,2,3,4,3,2
VCU,1995,2,1,2,7,1.651,51.36363636,5,2,2,0,2,NA,1,2,36.77777778,36.72222222,36.75,37.55220032,-77.45819855,94,13.33333333,09:41:35,5,1,2,1,NA,4,4,5,NA,8,4,8,7,1,NA,2,5,1,NA,NA,1,1,NA,2,Society of Human Resources Management,NA,NA,NA,NA,1,NA,NA,NA,NA,5,5,5,5,5,5,5,5,5,5,5,5,5,2,2,2,1,1,1,2,2,2,1,2,4,1,1,1,3,1,3,1,1,1,2,1,4,3,2,2,2,1,1,2,1,1,3,1,1,1,1,1,1,1,1,1,1,1,1,1,1,1,1,1,1,1,2,4,1,1,1,1,1,1,2,2,2,1,1,4,4,1,1,5,5,5,5,5,5,4,4,5,3,1,1,1,2,2,2,1,1,1,1,1,1,1,1,2,1,1,2,1,1,2,1,4,3,4,2,2,3,2,4,1,4,5,3,3,2,2,2,4,1,2,3,2,2,1,4,3,1,1,4,4,4,4,4,4,4,3,4,4,1,1,1,1,5,4,4,1,1,3,3,3,2,1,1,1,4,1,2,1,4,1,1,1,1,3,2
Serbia,1995,2,1,2,7,1.77,63,3,2,0,0,2,NA,1,2,36.5,37,36.75,44.81860352,20.46809387,58,4,10:18:50,6,1,2,1,NA,4,4,5,NA,8,4,6,6,1,NA,2,8,1,NA,NA,1,1,NA,1,NA,NA,NA,NA,NA,NA,NA,NA,NA,NA,4,4,4,4,4,4,4,4,4,3,4,4,4,3,3,4,2,3,2,2,3,2,3,3,5,2,4,2,2,2,3,2,1,2,2,4,4,4,2,4,2,2,3,4,2,3,2,3,3,2,4,3,7,2,3,3,2,4,2,2,2,3,2,5,2,8,4,8,NA,3,4,5,7,7,4,4,6,5,8,6,6,5,4,5,5,4,5,5,5,5,5,5,3,4,5,3,4,3,4,5,4,2,4,2,3,4,2,5,2,2,2,3,2,2,3,4,3,6,3,3,3,3,2,3,2,4,4,3,3,3,3,2,3,2,3,3,2,2,3,5,4,3,4,3,3,3,2,2,1,1,3,4,3,3,2,2,2,4,4,2,2,4,3,4,4,2,2,4,4,3,2,3,2,4,2,2,2,2,2
Tsinghua,1995,1,1,2,7,1.72,80,4,2,3,0,1,20,1,2,36.7,36.8,36.75,30.58009338,114.273407,72,14,09:35:20,7,3,2,1,0,4,4,5,0,8,4,8,8,1,1,2,8,1,8,4,5,2,1,1,Ñ§Éú»á,NA,NA,NA,NA,7,NA,NA,NA,NA,3,2,3,4,2,4,3,4,2,5,4,3,5,2,4,3,2,2,2,2,1,2,2,2,4,2,2,3,3,1,2,1,2,5,4,3,3,3,3,3,1,4,4,3,1,1,3,7,2,2,3,6,1,2,4,6,2,6,2,2,4,2,4,7,4,4,3,2,3,2,3,1,4,4,5,2,5,2,1,1,2,4,4,5,5,5,5,5,5,5,5,5,4,3,5,6,6,6,6,2,2,3,2,2,3,3,4,3,2,2,2,2,1,2,2,2,2,1,2,3,2,2,3,5,4,4,4,1,1,4,3,2,3,3,2,4,4,3,2,3,3,3,4,3,4,4,4,4,4,3,4,4,2,2,2,4,4,4,4,3,2,4,4,4,4,3,3,4,3,3,4,4,3,3,3,3,4,2,1
Oslo,1995,2,1,1,6,1.75,67,4,2,0,0,2,NA,2,2,36.77777778,36.72222222,36.75,59.91270447,10.74609375,87,1,14:34:55,4,1,2,1,NA,2,2,5,NA,3,3,5,5,1,NA,2,1,3,1,4,3,1,NA,1,NA,NA,NA,NA,NA,NA,NA,NA,NA,NA,3,2,4,4,4,4,1,3,2,2,2,3,3,4,3,4,3,3,3,3,4,3,3,3,4,3,4,2,2,2,3,4,2,4,3,4,4,4,4,4,4,2,3,3,4,4,4,6,6,4,5,6,5,6,5,5,6,2,2,5,4,6,5,6,5,4,2,5,3,5,5,5,5,5,3,3,3,3,5,5,3,3,4,5,4,4,4,4,4,3,5,5,6,6,5,6,6,5,5,4,2,2,2,4,2,4,2,3,4,4,3,3,2,3,2,5,6,6,3,4,4,4,2,3,3,4,3,3,3,3,3,4,3,3,3,3,5,3,4,4,3,3,3,3,3,4,4,3,3,3,4,5,3,2,4,2,2,2,2,3,2,3,2,4,3,4,2,4,4,4,4,4,4,5,4,4,4,2,4
Tsinghua,1995,1,1,2,7,1.75,62.5,2,2,NA,NA,2,0,1,2,36.5,37,36.75,30.66670227,104.0667114,76,13,10:29:11,7,3,2,1,0,4,1,5,0,8,3,2,1,1,1,2,3,1,1,4,3,2,1,2,NA,NA,NA,NA,NA,NA,NA,NA,NA,NA,1,2,1,4,2,3,2,2,2,1,1,4,3,3,4,3,4,4,1,5,2,4,5,4,4,4,2,1,5,1,2,3,4,4,2,5,2,1,3,4,2,2,1,1,1,2,3,5,4,3,6,2,4,4,5,2,5,3,6,7,3,7,3,4,2,6,2,2,2,3,2,3,2,2,2,2,5,2,4,3,2,2,6,4,3,3,4,4,3,5,4,3,6,3,4,5,4,2,4,5,2,2,4,2,5,4,5,4,4,2,3,2,2,3,1,2,2,4,2,2,1,3,3,4,4,5,2,4,3,5,2,4,1,2,1,4,4,2,4,5,3,4,3,5,5,3,2,4,3,3,5,4,3,3,2,1,1,1,2,4,3,4,1,4,4,2,2,5,3,2,1,4,3,5,2,3,4,3,1
Oslo,1995,2,1,1,6,1.75,68,4,2,0,0,2,NA,2,2,36.77777778,36.72222222,36.75,NA,NA,90,0,14:42:52,4,1,2,1,NA,2,2,5,NA,3,3,5,5,1,NA,2,4,3,1,5,2,1,NA,1,NA,NA,NA,NA,NA,NA,NA,NA,NA,NA,3,3,3,3,3,3,3,3,3,3,3,3,3,3,3,3,3,3,3,3,3,3,3,3,3,3,3,3,3,3,3,3,3,3,3,3,3,3,3,3,3,3,3,3,3,3,3,4,4,4,4,4,4,4,4,4,4,4,4,4,4,4,4,4,4,4,4,4,4,4,4,4,4,4,4,4,4,4,4,4,4,4,4,4,4,4,4,4,4,4,4,4,5,4,4,4,4,4,4,3,3,3,3,3,3,3,3,3,3,3,3,3,3,3,3,4,6,5,4,4,4,4,3,3,3,3,3,3,3,3,3,3,3,3,3,3,3,3,3,3,3,3,3,3,3,4,4,3,4,3,3,3,3,3,3,3,3,3,3,4,4,4,4,4,2,4,2,4,3,4,4,4,4,4,4,4,3,3,3
METU,1995,2,1,2,7,1.66,62,4,1,1,0,2,NA,1,2,36.8,36.7,36.75,39.91169739,32.84030151,71,8,10:39:06,3,2,2,1,NA,4,4,5,NA,3,2,4,3,1,NA,2,8,1,NA,NA,2,1,NA,1,NA,NA,NA,NA,NA,NA,NA,NA,NA,NA,4,2,3,3,3,4,2,2,2,2,4,2,3,3,3,3,3,2,2,3,3,4,3,3,4,3,2,4,4,3,3,2,3,4,3,3,5,2,3,4,4,1,1,1,1,1,4,6,5,3,7,7,7,4,7,6,2,4,5,6,2,2,6,4,2,2,2,4,2,2,4,7,6,4,2,2,1,1,6,2,2,1,2,4,5,4,5,5,5,5,5,5,4,5,5,5,6,5,5,3,4,4,4,4,3,4,2,3,3,4,2,2,1,3,2,2,2,5,2,2,2,2,2,2,2,5,2,5,1,2,5,4,4,1,2,4,5,2,4,3,3,4,4,3,5,5,5,4,4,4,4,3,1,1,1,3,5,4,3,4,2,4,3,4,3,5,2,4,2,5,5,5,2,5,5,4,4,2,4
Tsinghua,1995,2,1,1,7,1.56,48,2,2,2,0,2,0,1,2,36.7,36.8,36.75,39.92889404,116.3883057,21,11,10:35:52,7,3,2,1,0,4,2,5,0,3,1,5,4,1,1,2,6,1,1,1,3,2,1,2,NA,NA,NA,NA,NA,NA,NA,NA,NA,NA,4,2,2,4,4,2,1,3,2,2,4,2,4,4,2,3,3,4,2,2,3,2,3,2,4,3,3,4,4,2,4,4,4,2,4,4,4,4,4,4,2,4,2,2,4,4,4,5,5,2,5,6,6,6,2,5,5,4,5,2,5,2,5,6,2,2,2,5,1,5,1,2,2,2,3,2,5,3,2,5,3,2,3,4,4,4,4,4,4,4,4,4,5,2,4,5,6,6,6,3,3,4,3,4,4,4,3,4,2,4,3,4,2,4,2,3,2,2,2,2,3,4,2,4,4,4,2,4,3,2,2,4,2,2,4,4,2,2,2,2,3,3,4,4,4,4,4,3,4,2,4,4,2,2,2,2,4,4,4,4,4,4,3,4,4,3,3,4,4,4,4,4,4,4,4,4,4,2,4
Poland,1995,2,1,1,7,1.66,57,3,2,6,2,2,NA,1,2,36.7,36.8,36.75,52.23330688,21.01669312,59,3,12:03:55,9,1,2,1,NA,4,4,5,1,6,5,6,6,2,2,2,8,2,1,1,1,2,3,1,NA,NA,NA,NA,NA,NA,NA,NA,NA,NA,3,2,2,4,5,4,2,3,4,2,4,3,4,3,4,5,3,4,3,3,3,3,3,4,4,3,3,4,4,4,4,4,3,4,2,4,4,4,4,3,4,2,3,4,3,2,4,5,6,5,5,7,6,5,5,7,4,3,5,4,5,5,5,5,4,4,3,4,2,3,1,1,3,1,2,2,3,2,1,4,4,3,3,4,4,4,4,4,3,2,4,4,2,2,2,2,2,2,2,4,4,2,4,4,3,4,2,4,3,2,2,1,2,2,4,5,8,7,8,8,8,8,2,4,3,4,4,4,2,3,2,5,3,3,4,4,4,3,4,3,2,4,3,4,4,4,4,4,4,4,4,3,2,2,2,2,4,4,2,2,2,3,3,4,4,3,2,2,4,4,3,3,3,3,4,2,2,2,4
Serbia,1995,2,1,2,7,1.73,55,3,2,0,0,2,NA,1,2,36.7,36.8,36.75,44.7467041,19.69000244,65,2,11:06:14,6,1,2,1,NA,3,1,5,NA,6,5,4,4,1,NA,2,5,1,NA,NA,1,1,NA,1,NA,NA,NA,NA,NA,NA,NA,NA,NA,NA,3,3,2,4,4,4,2,4,3,3,4,4,5,3,4,4,2,2,1,4,4,2,3,5,4,3,3,5,4,3,4,3,2,4,4,5,4,4,4,2,3,3,4,5,2,4,3,3,8,5,8,8,4,4,5,4,5,4,4,4,1,8,4,5,3,8,5,7,5,8,5,8,6,6,6,5,6,6,8,7,7,5,4,4,4,3,4,4,5,4,5,5,7,7,6,6,7,7,7,4,5,4,3,4,4,4,5,4,3,4,1,2,1,4,3,3,3,3,1,4,4,5,2,4,2,4,2,5,2,3,3,5,4,4,2,2,4,4,4,3,2,3,3,4,3,3,4,2,2,3,4,3,3,4,3,2,3,4,4,1,2,4,3,2,4,2,1,3,4,2,2,4,3,5,2,3,4,2,4
Tsinghua,1995,2,1,1,7,1.62,48,2,2,4,0,2,0,1,2,36.6,36.9,36.75,30.58009338,114.273407,66,13,11:05:10,7,3,2,1,0,4,4,5,0,3,3,6,4,1,1,2,8,1,1,8,1,2,1,2,°à¼¶,NA,NA,NA,NA,7,NA,NA,NA,NA,1,4,5,4,2,2,1,1,2,4,3,1,2,2,3,2,3,4,4,2,2,4,4,2,4,4,2,5,5,2,5,5,5,5,2,4,3,2,5,4,3,1,4,4,2,4,5,6,6,6,6,7,6,6,6,6,6,2,2,2,2,2,4,5,2,6,2,2,2,2,2,5,2,2,2,2,3,2,6,1,2,4,4,4,4,4,4,4,3,3,4,4,6,2,2,6,6,6,6,2,2,2,3,4,2,2,2,2,4,2,2,3,2,2,2,5,5,6,5,6,6,4,2,2,4,4,2,4,2,2,4,4,4,1,1,4,4,2,5,3,3,2,4,4,4,4,2,4,4,2,4,4,2,3,2,2,4,4,2,2,2,4,3,4,4,2,2,4,4,2,4,2,4,2,2,2,3,1,2
UCSB,1995,2,1,2,7,1.651,53.63636364,4,1,0,0,2,NA,1,2,36.77777778,36.77777778,36.77777778,34.4335022,-119.5223007,92,13.88888889,NA,5,1,2,1,NA,4,4,3,4,8,2,6,6,1,NA,2,1,3,1,1,1,1,NA,1,NA,NA,NA,NA,NA,NA,NA,NA,NA,NA,2,1,2,2,1,3,1,5,1,1,5,5,3,4,5,5,4,2,1,2,4,3,2,5,5,1,5,5,5,4,5,5,5,5,5,5,5,5,5,5,5,1,1,5,5,1,5,7,7,6,7,2,7,2,7,7,3,7,7,4,7,7,7,7,2,2,1,1,1,6,3,2,3,1,3,1,1,1,1,1,1,1,4,5,5,5,5,5,3,1,5,5,7,7,7,7,7,7,7,3,1,1,1,1,1,5,2,1,1,1,2,1,1,1,1,4,4,7,3,4,5,5,1,5,3,5,1,1,3,4,5,5,2,1,5,5,5,5,3,4,2,5,5,5,5,5,1,5,4,4,4,1,1,3,2,1,5,3,4,1,1,5,3,5,4,5,5,4,5,5,5,5,1,5,5,5,5,1,5
Zurich,1995,2,1,2,7,1.75,68,3,1,2,0,1,2,1,2,36.8,36.8,36.8,47.2407074,8.725296021,72,4,10:05:11,1,1,2,1,NA,4,4,3,1,4,2,7,4,1,NA,2,8,3,7,8,1,1,NA,1,NA,NA,NA,NA,NA,NA,NA,NA,NA,NA,2,3,2,3,2,5,4,3,3,4,3,3,2,3,3,4,2,3,2,2,3,3,2,3,4,1,3,2,4,4,2,2,2,2,2,3,4,4,2,4,4,1,1,2,2,2,2,5,6,5,6,6,6,6,6,6,5,5,4,5,2,6,6,6,2,4,3,6,4,3,2,2,3,5,3,2,3,4,4,6,6,3,3,5,5,5,5,4,5,4,5,5,7,6,6,7,7,6,6,4,4,2,3,4,4,4,4,2,2,4,2,2,2,3,2,5,8,4,2,2,4,8,3,3,2,4,2,3,4,4,2,4,2,1,2,4,1,3,2,3,2,4,4,4,3,4,4,4,3,4,4,4,2,2,2,3,3,3,2,2,3,4,2,4,3,2,2,3,4,4,4,4,3,3,4,4,3,2,4
METU,1995,2,1,1,7,1.7,63,5,2,3,0,2,NA,1,2,36.6,37,36.8,39.91169739,32.84030151,56,4,11:22:40,3,2,2,1,NA,4,4,4,1,4,3,7,5,1,NA,2,8,1,NA,NA,1,1,NA,2,??renci toplulu?u,NA,NA,NA,NA,5,NA,NA,NA,NA,2,4,4,4,1,3,4,2,2,4,4,1,4,2,3,3,2,3,2,3,4,2,2,4,4,2,2,4,2,3,2,3,3,4,4,4,4,4,4,4,4,2,2,2,3,2,4,6,3,5,5,6,3,2,5,3,2,2,2,1,4,3,5,1,3,3,5,5,6,6,2,5,5,5,2,2,7,2,4,5,5,2,2,4,4,4,4,4,4,3,4,4,5,6,6,6,5,4,4,3,4,2,4,3,3,3,2,2,2,4,2,4,3,4,2,5,6,6,3,4,3,1,4,3,3,4,2,2,2,4,4,4,4,2,3,3,4,2,4,4,3,4,3,4,4,4,2,4,3,2,4,4,2,2,2,2,2,3,3,3,1,2,4,4,4,4,2,4,3,4,4,4,2,4,4,3,3,1,5
SMU,1995,2,1,1,2,1.68,59,3,2,0,0,2,NA,1,2,36.7,36.9,36.8,1.293106079,103.8558044,70,26,10:30:22,5,1,2,1,NA,4,4,5,NA,3,1,6,5,1,NA,2,8,1,NA,NA,1,1,NA,2,Dance CCA,NA,NA,NA,NA,7,NA,NA,NA,NA,4,3,3,4,5,4,3,4,2,4,4,4,4,2,5,3,2,2,2,4,3,2,2,5,5,1,2,3,4,2,5,4,4,4,2,2,2,2,2,2,2,2,1,3,1,1,2,5,5,4,3,5,4,2,2,2,1,2,5,1,3,2,2,2,2,2,1,2,1,2,3,1,2,2,1,1,1,1,2,1,1,1,2,5,5,5,5,5,5,4,5,5,3,7,5,5,5,4,5,2,4,2,3,2,3,3,3,2,2,2,3,3,2,4,2,3,4,5,3,3,4,4,1,2,4,4,2,5,2,3,5,4,2,1,4,4,4,3,2,3,4,4,4,5,3,5,5,5,5,4,5,5,1,1,3,4,3,4,4,3,3,4,4,4,4,4,2,4,4,5,5,4,1,4,4,4,3,2,5
Tsinghua,1995,1,1,2,5,1.7,70,2,2,2,0,2,0,1,2,36.8,36.8,36.8,30.58009338,114.273407,74,16,10:40:15,7,3,2,1,0,4,1,5,0,1,0,3,1,1,1,2,8,3,1,8,8,2,1,2,NA,NA,NA,NA,NA,0,0,0,0,0,4,5,3,4,5,4,1,3,2,3,3,4,1,3,3,3,2,3,3,4,4,4,4,2,3,2,3,4,5,2,5,2,2,4,3,5,4,4,4,4,3,2,2,2,2,3,4,3,3,4,5,5,3,4,5,4,2,3,3,4,3,3,3,5,3,4,4,4,3,3,3,2,4,2,3,3,5,3,3,3,4,3,4,4,4,4,3,2,2,4,2,3,6,4,5,5,4,4,4,3,3,3,4,4,4,3,4,3,3,2,1,4,2,3,4,3,2,7,3,3,1,1,4,5,5,5,1,2,2,4,3,4,3,2,4,4,3,3,3,4,2,2,2,3,3,2,3,4,3,2,3,3,2,3,2,2,2,2,4,3,1,4,4,4,3,2,3,4,4,2,3,3,3,2,4,3,4,4,2
VCU,1995,2,1,1,7,1.5748,52.27272727,3,1,0,0,2,NA,1,2,36.83333333,36.83,36.83166667,37.55220032,-77.45819855,87,13.33333333,09:47:22,5,1,2,1,NA,4,4,5,NA,2,2,5,5,2,1,2,5,1,NA,NA,1,2,1,2,Alpha Gamma Delta,NA,NA,NA,NA,6,NA,NA,NA,NA,3,4,5,4,4,3,5,1,4,4,4,5,4,3,2,4,3,2,2,3,4,3,3,2,5,2,3,2,4,3,4,3,2,2,3,3,4,3,4,3,4,2,2,2,2,3,4,2,2,3,2,2,2,2,3,2,2,3,2,2,2,2,5,3,2,6,3,5,5,5,5,3,3,5,3,4,4,5,3,6,4,6,3,4,4,4,4,5,5,4,4,4,4,4,2,2,5,4,4,2,4,1,4,3,3,4,4,4,2,3,3,2,2,3,4,1,3,4,3,2,3,1,2,4,4,4,2,4,2,2,2,4,2,2,4,2,2,4,3,2,2,2,5,5,4,1,3,2,3,3,2,2,2,2,3,1,4,3,2,2,2,3,3,3,3,2,2,3,4,1,3,2,4,4,2,2,3,2,1
UCSB,1995,1,1,2,1,1.7272,59.09090909,3,1,10,0,1,2,1,2,36.55555556,37.11111111,36.83333333,34.4329071,-119.8370972,86,12.22222222,11:26:00,5,1,2,1,NA,4,4,5,NA,5,1,8,8,1,NA,2,3,3,1,6,8,1,NA,1,NA,NA,NA,NA,NA,NA,NA,NA,NA,NA,3,4,1,4,1,2,2,1,1,5,3,3,5,3,3,4,3,3,2,3,4,2,3,5,4,3,4,1,4,1,4,1,1,2,1,2,1,1,1,1,1,1,2,1,1,1,1,2,5,2,3,3,4,6,3,5,2,2,2,3,2,2,2,6,2,4,3,2,3,2,2,3,2,2,3,3,4,2,2,3,3,2,2,1,3,4,3,3,2,2,2,4,6,7,5,4,6,4,4,2,2,2,2,2,3,2,2,2,2,2,2,2,3,3,2,4,4,3,1,1,1,1,1,2,3,5,4,2,3,2,4,3,1,3,1,2,4,3,1,2,1,2,4,2,4,2,2,4,2,3,2,2,2,4,4,2,2,4,2,2,2,3,3,4,3,2,4,2,4,2,2,3,3,4,2,3,4,3,2
UCSB,1995,2,1,1,7,1.6256,56.81818182,2,1,1.5,1.5,2,NA,1,1,36.11111111,37.55555556,36.83333333,34.4329071,-119.8370972,86,12.22222222,12:03:00,5,1,2,1,NA,4,1,4,1,8,2,8,7,1,NA,2,8,3,1,8,6,1,NA,2,Gaucho Automative Society,Cars and Chill,NA,NA,NA,4,2,NA,NA,NA,3,4,3,4,3,3,2,3,2,3,4,5,5,2,2,3,3,2,2,2,1,2,3,2,4,2,2,4,4,2,3,2,1,2,3,4,4,3,3,2,3,1,2,2,3,2,4,4,2,3,3,2,4,4,3,4,2,3,2,2,2,2,4,4,2,4,3,5,2,2,3,3,3,2,3,3,5,2,4,3,5,2,4,4,4,4,4,5,4,2,4,3,5,6,6,5,4,5,5,2,2,1,2,1,1,3,2,3,2,1,3,2,1,2,2,5,6,5,3,3,2,3,2,2,4,4,3,4,2,2,4,4,2,2,2,3,3,2,2,2,3,3,4,3,5,5,5,4,4,4,3,2,1,1,2,1,1,4,4,3,2,2,3,2,2,3,2,4,4,3,3,4,3,4,3,4,3,4,4
SMU,1995,2,1,2,1,1.64,57,2,2,0,0,2,NA,1,2,36.7,37,36.85,1.293106079,103.8558044,70,27,10:52:31,5,1,2,1,NA,4,4,5,NA,2,2,8,5,1,NA,2,8,1,NA,NA,3,1,NA,1,NA,NA,NA,NA,NA,NA,NA,NA,NA,NA,4,5,3,5,5,5,3,4,4,4,4,4,5,2,3,3,2,2,2,2,2,3,3,2,4,2,2,1,1,1,1,2,1,1,1,1,2,1,2,1,1,1,1,1,2,1,1,1,4,4,4,4,4,4,4,4,4,4,4,4,4,4,4,4,4,4,4,4,4,4,4,4,4,4,4,4,4,4,4,4,4,4,4,5,5,5,5,5,5,5,5,5,4,5,4,5,5,5,5,2,1,1,2,1,1,1,1,2,1,1,2,1,2,2,3,5,8,6,4,7,8,8,2,5,5,2,2,2,2,2,2,5,5,2,4,5,2,4,2,2,2,2,3,4,3,4,3,3,4,4,4,4,2,1,1,1,2,5,5,2,1,3,3,3,4,2,3,4,2,2,3,4,1,4,4,4,2,4,2
Tsinghua,1995,2,1,2,7,1.65,53.5,2,2,0,0,2,0,1,2,36.9,36.8,36.85,30.58009338,114.273407,90,13,11:01:18,7,3,2,1,0,4,4,5,0,5,3,6,1,1,1,2,4,3,2,2,1,2,1,2,NA,NA,NA,NA,NA,NA,NA,NA,NA,NA,2,2,2,3,4,3,1,1,2,2,2,4,2,4,3,5,4,4,4,4,2,4,3,2,4,2,3,2,2,1,3,3,3,1,3,4,3,3,3,2,2,1,1,2,2,3,3,5,2,5,5,4,5,5,5,5,5,5,4,4,4,5,2,6,1,6,3,4,5,2,6,6,5,5,3,3,6,4,7,3,6,3,6,3,3,2,4,4,5,5,3,4,3,1,5,5,5,5,4,2,3,1,2,4,4,5,2,4,4,1,3,4,2,4,2,4,5,4,4,3,3,4,1,5,4,4,1,3,1,3,4,5,2,2,2,4,3,4,2,4,2,2,4,4,2,1,3,4,2,3,4,2,1,4,1,3,4,4,1,3,2,4,4,3,4,1,3,5,4,1,1,1,3,1,4,1,3,2,2
SMU,1995,2,1,2,7,1.75,65,3,2,1,0,2,NA,1,2,36.7,37,36.85,1.293106079,103.8558044,70,26,10:17:05,5,1,2,1,NA,4,4,5,NA,4,2,7,4,1,NA,2,8,1,NA,NA,1,1,NA,1,NA,NA,NA,NA,NA,NA,NA,NA,NA,NA,2,2,3,4,2,2,2,2,2,3,3,2,4,3,3,4,2,2,2,4,4,3,4,3,4,3,4,2,4,2,2,3,2,2,2,4,4,4,4,4,4,2,2,2,2,2,4,5,3,5,5,4,2,3,5,2,4,4,3,5,3,3,3,5,3,6,3,3,3,3,3,4,2,3,3,2,3,2,6,2,3,4,3,4,4,4,4,4,4,4,4,4,3,6,6,6,4,4,4,4,4,2,4,4,2,4,4,4,2,2,3,4,3,2,4,3,3,3,2,2,3,1,3,2,4,3,2,2,2,4,4,4,4,2,3,4,2,4,2,4,2,2,4,4,4,4,2,4,3,3,2,2,2,2,2,2,2,4,2,2,2,2,3,4,4,2,3,3,4,2,2,2,2,2,4,2,4,2,4
Tsinghua,1995,2,1,1,7,1.63,46,3,2,3,0,2,0,1,2,36.8,36.9,36.85,30.58009338,114.273407,78,17,10:59:01,7,3,2,1,0,4,2,5,0,6,3,5,4,1,1,2,8,3,1,2,1,2,1,2,NA,NA,NA,NA,NA,NA,NA,NA,NA,NA,3,2,5,2,3,2,1,5,4,3,3,3,4,4,4,4,4,3,2,2,3,4,2,4,3,4,4,2,4,2,4,4,4,2,4,4,4,4,4,4,4,3,2,2,2,4,4,4,6,6,3,5,4,6,5,4,5,4,4,4,5,6,6,6,4,4,5,3,2,3,3,3,2,2,2,2,4,2,3,2,2,2,4,4,4,4,4,4,4,4,4,5,3,4,4,5,3,5,5,4,4,2,2,4,4,4,4,4,2,5,2,2,2,2,2,1,2,4,4,2,5,3,4,4,4,5,1,2,1,3,1,5,4,2,5,3,3,2,2,4,3,3,2,4,4,4,4,4,3,3,4,3,2,3,2,2,3,2,4,2,3,4,2,4,4,4,3,4,2,4,3,2,4,2,4,3,4,4,3
Oslo,1995,2,1,1,7,1.81,72,1,2,2,1,2,NA,1,2,36.8,36.9,36.85,59.05329895,10.03520203,89,0,10:53:21,4,1,2,1,NA,4,4,4,1,2,2,3,3,1,NA,2,4,1,NA,NA,1,1,NA,1,NA,NA,NA,NA,NA,NA,NA,NA,NA,NA,4,2,2,4,5,5,5,5,4,3,3,5,4,5,3,5,4,4,3,3,3,3,3,2,5,3,4,4,4,4,4,4,4,4,4,4,5,5,5,5,4,1,1,2,4,3,4,6,6,6,6,6,7,5,6,6,5,7,2,5,1,2,5,6,2,3,3,6,6,6,4,6,4,3,2,2,3,2,5,4,4,2,4,5,5,5,5,4,4,4,5,4,3,2,2,3,2,2,2,4,4,3,4,2,4,4,3,4,4,4,1,1,2,5,2,4,5,5,1,3,1,3,2,4,5,2,2,2,4,3,3,5,5,1,5,5,4,4,2,2,2,1,4,5,2,4,4,4,3,2,4,3,2,2,1,1,2,4,3,1,1,5,4,2,4,2,4,3,4,3,3,4,4,4,4,4,2,1,3
SMU,1995,2,1,2,1,1.66,48,3,2,4,0,2,NA,1,2,36.7,37,36.85,1.293106079,103.8558044,70,26,09:42:22,5,1,2,1,NA,4,1,5,NA,1,NA,8,5,2,1,2,7,1,NA,NA,2,1,NA,2,Bondue EXCO,Consumer Behaviour Group,CAT Group,MPW Group,NA,7,3,1,3,NA,3,2,3,4,4,5,2,4,3,3,3,2,3,4,4,5,3,4,3,3,4,3,3,4,4,3,3,5,4,4,5,5,5,5,4,5,4,4,4,4,4,3,5,4,4,4,5,6,5,5,5,6,7,3,5,5,4,4,5,3,4,6,6,6,2,2,3,4,4,4,5,3,2,4,3,4,2,3,6,2,3,3,2,4,5,5,4,4,5,4,5,4,2,5,5,4,3,2,2,4,5,2,2,2,4,4,4,4,3,1,1,1,2,4,3,4,5,6,5,4,4,4,1,4,4,4,3,2,2,3,4,3,3,1,2,3,4,4,5,3,3,4,5,4,3,4,4,3,5,4,3,3,3,2,3,2,1,4,4,1,2,5,3,4,5,3,3,4,5,3,4,3,1,2,3,3,3,4,3
UCSB,1995,2,1,1,7,1.6002,54.54545455,3,1,0,0,2,NA,1,2,36.72222222,37,36.86111111,NA,NA,64,6.111111111,NA,5,1,2,1,NA,4,2,4,4,8,8,5,5,2,1,2,5,3,1,8,3,1,NA,1,NA,NA,NA,NA,NA,NA,NA,NA,NA,NA,3,3,4,4,4,4,3,4,3,2,4,5,4,3,3,4,2,2,2,3,2,1,2,3,5,2,2,2,2,3,2,2,1,3,2,5,4,2,1,4,2,1,1,1,1,1,1,1,1,1,1,1,1,1,1,3,1,7,1,1,1,1,1,4,1,1,1,1,1,1,1,1,1,7,1,1,1,1,1,2,1,1,1,5,5,5,5,5,5,2,2,3,6,5,5,5,6,6,6,4,4,1,4,4,1,2,1,2,2,1,3,3,1,2,2,4,6,4,2,2,4,3,2,3,4,4,3,4,3,4,4,3,2,2,4,4,2,4,2,1,3,4,4,3,5,5,5,5,5,5,5,3,1,1,1,4,5,5,3,2,2,2,2,4,3,3,1,5,5,5,4,4,1,4,4,4,4,4,1
UCSB,1995,1,2,1,7,1.8796,86.36363636,3,1,0,0,2,NA,1,2,36.94444444,36.77777778,36.86111111,34.05220032,-118.2436981,84,7.222222222,NA,5,1,2,1,NA,4,2,5,NA,3,1,4,4,1,NA,2,8,3,1,3,1,2,2,1,NA,NA,NA,NA,NA,NA,NA,NA,NA,NA,3,2,3,3,2,3,2,2,2,2,4,2,2,3,4,5,3,4,3,3,4,4,4,4,4,4,4,5,5,5,5,5,4,5,5,5,5,5,5,5,5,5,5,5,5,5,5,7,7,7,4,7,7,6,5,6,3,7,4,4,4,7,7,7,5,2,2,5,1,2,2,2,3,4,1,1,1,1,2,4,3,2,3,5,5,5,5,5,5,5,5,5,2,3,3,3,3,3,3,5,5,3,3,5,3,5,4,5,4,4,1,5,3,4,3,5,5,4,3,3,3,4,5,4,5,2,1,2,4,5,2,5,4,4,5,4,2,5,2,4,4,4,5,5,3,5,5,5,5,3,5,5,2,2,2,1,5,2,2,5,3,4,5,3,5,5,4,5,3,3,5,4,2,4,4,4,3,2,5
Serbia,1995,2,1,1,7,1.67,52,4,2,0,0,2,NA,1,2,36.8,37,36.9,44.81860352,20.46809387,65,10,10:35:11,6,1,2,1,NA,4,4,5,NA,3,1,5,3,1,NA,2,5,1,NA,NA,3,1,NA,1,NA,NA,NA,NA,NA,NA,NA,NA,NA,NA,5,4,5,5,5,4,4,5,4,5,4,3,5,1,3,3,2,1,1,1,1,2,1,3,5,1,1,2,3,2,3,1,1,2,1,4,4,4,2,4,4,2,3,3,2,1,3,1,1,1,4,4,1,2,1,NA,1,5,1,1,1,1,5,1,1,3,1,7,1,2,4,2,NA,NA,NA,NA,1,NA,5,7,7,NA,1,4,4,4,5,5,3,3,4,4,2,3,3,3,3,3,3,2,1,1,2,1,1,1,2,4,1,2,1,2,1,1,2,3,3,2,1,2,1,3,3,3,3,5,4,3,3,3,3,4,2,2,1,1,4,4,4,4,3,4,2,4,4,3,1,1,1,3,3,3,3,3,1,1,1,4,3,3,2,4,3,4,5,2,3,3,4,4,4,4,3,5,2,3,3,3,3
Tsinghua,1995,1,1,2,4,1.65,65,4,2,0.5,0,2,0,1,2,36.9,36.9,36.9,30.58009338,114.273407,74,16,10:42:58,7,3,2,1,0,4,4,5,0,8,2,4,3,1,1,2,3,1,1,2,4,2,1,2,Êé·¨Ð­»á,NA,NA,NA,NA,2,NA,NA,NA,NA,3,4,3,5,4,3,1,3,4,3,3,3,4,3,2,2,3,3,1,3,1,2,3,3,4,3,2,1,4,2,4,1,3,3,3,4,2,2,3,4,2,2,2,3,3,2,3,5,4,3,4,5,2,3,5,4,2,3,4,4,3,2,6,5,2,3,1,2,2,2,2,2,2,6,4,2,7,2,2,2,6,3,3,4,4,4,4,4,4,3,4,4,7,2,4,4,3,3,3,2,2,4,2,1,3,2,1,2,2,1,2,2,2,3,2,3,4,5,2,4,3,4,2,4,5,4,1,3,2,3,4,5,2,2,3,5,4,2,4,4,4,3,3,4,4,3,3,4,2,2,4,2,2,1,2,2,2,4,2,4,2,4,3,4,4,2,2,4,4,2,2,3,2,4,4,4,4,3,1
Tsinghua,1995,2,1,2,1,1.6,43,3,1,0,0,2,0,1,2,36.9,36.9,36.9,30.58009338,114.273407,65,16,10:57:54,7,3,2,1,0,4,1,5,0,4,1,7,5,1,1,2,8,1,1,8,5,2,1,1,ÃÎ±ÊÉú»°,NA,NA,NA,NA,7,NA,NA,NA,NA,2,2,2,4,4,4,2,3,2,2,4,2,3,3,4,2,2,2,3,3,3,4,2,4,4,4,4,2,4,2,4,3,2,1,4,4,4,4,4,4,2,4,4,2,2,4,4,3,2,2,2,3,3,1,2,2,2,2,3,5,1,2,2,3,2,3,2,3,3,3,3,3,2,3,3,2,6,2,2,3,3,3,2,4,4,4,4,4,5,4,4,4,2,2,2,3,2,2,3,2,2,2,2,2,1,2,2,2,2,2,2,4,2,2,4,4,4,4,1,2,1,3,2,2,4,4,3,4,4,4,4,4,2,1,2,4,4,2,4,4,2,2,2,4,4,2,2,4,3,4,4,4,2,2,2,2,2,4,4,2,2,4,4,4,4,2,2,4,4,2,2,4,2,3,4,4,4,2,2
Oxford,1995,2,4,2,3,1.61,64,2,2,4,4,2,NA,1,2,36.8,37,36.9,51.75,-1.25,74,2.777777778,08:37:19,5,1,2,1,NA,4,2,5,NA,4,3,4,5,1,NA,2,2,3,1,8,1,1,NA,1,NA,NA,NA,NA,NA,NA,NA,NA,NA,NA,2,3,3,3,3,3,3,2,3,3,3,3,3,3,3,3,4,4,3,3,3,3,4,3,3,4,3,4,4,2,4,2,2,3,3,3,3,2,2,2,2,2,2,2,2,2,2,2,2,2,2,3,2,2,2,6,3,2,3,3,2,2,2,3,3,2,5,2,6,2,2,2,6,5,6,6,5,6,2,6,6,6,6,3,3,3,3,3,4,4,3,3,3,3,3,3,4,4,3,3,3,3,2,3,3,3,3,3,3,3,3,3,3,4,3,4,2,3,1,2,1,1,5,5,5,4,2,3,3,4,4,5,5,2,5,5,5,4,3,3,3,3,3,3,4,4,4,4,4,3,3,3,3,3,3,2,4,4,3,4,4,3,4,4,4,2,2,3,4,2,2,2,3,2,2,3,3,3,2
SMU,1995,2,1,2,7,1.54,55,2,2,1,0,2,NA,1,2,36.8,37,36.9,1.293106079,103.8558044,70,27,10:42:31,5,1,2,1,NA,4,4,5,NA,8,6,2,4,1,NA,2,8,1,NA,NA,4,1,NA,2,Toastmasters,NA,NA,NA,NA,6,NA,NA,NA,NA,3,3,2,3,3,4,2,4,2,4,4,2,4,3,3,3,3,2,3,3,3,3,3,3,4,3,3,4,4,4,4,4,3,2,4,4,4,4,4,4,4,2,2,2,3,2,4,4,5,5,5,5,5,4,5,4,4,5,4,4,4,5,4,5,4,4,4,5,5,5,5,5,4,5,4,3,4,3,4,4,4,5,4,4,4,4,3,4,4,4,4,4,5,6,6,6,6,6,6,4,4,3,3,4,4,4,4,3,4,4,2,2,2,3,2,4,6,5,3,3,2,2,1,4,3,3,3,4,2,2,4,4,4,2,3,4,4,3,4,3,2,3,4,4,3,3,3,3,3,3,3,3,3,3,3,2,2,3,4,1,2,3,3,4,5,2,2,3,4,2,2,2,4,4,3,4,4,3,4
Zurich,1995,2,1,1,7,1.64,54,3,2,8,4,2,NA,1,2,36.9,36.9,36.9,47.16859436,8.51449585,85,10,10:53:30,1,1,2,1,NA,4,4,4,4,2,2,7,8,1,NA,2,6,3,1,8,4,2,8,2,Blauring,NA,NA,NA,NA,6,NA,NA,NA,NA,2,2,2,4,2,3,2,2,2,4,3,3,4,2,3,3,2,2,2,2,3,3,2,3,3,2,2,4,4,2,4,4,2,5,4,4,5,4,5,4,5,2,2,2,3,2,5,2,4,2,2,2,1,4,2,3,1,3,2,2,4,2,1,2,1,2,2,2,1,1,2,1,2,7,2,2,1,2,2,7,6,2,2,5,5,5,5,5,4,4,5,5,5,4,4,3,4,5,4,2,1,2,2,3,2,2,1,2,1,2,1,2,1,2,1,4,5,7,4,4,5,5,2,4,3,4,2,4,4,2,4,4,4,1,3,4,4,3,2,4,4,5,4,4,4,5,5,5,5,4,4,4,1,1,2,2,3,4,3,2,4,4,2,3,4,4,2,4,5,4,4,4,4,3,4,3,3,2,4
Oxford,1995,2,1,2,6,1.651,55,2,2,0,3,1,8,1,2,37,36.8,36.9,51.75,-1.25,71,1.666666667,08:30:51,5,1,2,1,NA,4,4,5,NA,3,3,8,8,1,NA,2,8,1,NA,NA,1,1,NA,1,NA,NA,NA,NA,NA,NA,NA,NA,NA,NA,2,1,3,2,2,2,2,1,1,2,3,1,3,4,4,5,2,3,3,3,4,3,3,4,5,3,4,4,4,3,5,3,4,4,3,5,4,4,5,4,5,2,2,4,5,3,5,7,6,6,5,7,6,5,4,6,5,6,5,3,3,6,6,7,3,3,2,3,2,2,3,2,2,2,1,1,2,2,3,2,1,2,3,4,4,4,5,5,4,3,4,5,3,5,3,5,4,3,3,5,5,2,3,4,3,4,5,3,4,4,1,2,2,3,2,5,6,6,5,5,6,6,3,4,3,5,3,3,4,4,4,5,2,2,2,4,4,2,4,3,3,4,4,3,4,5,4,4,4,4,4,4,3,4,4,3,4,4,5,2,3,4,4,2,4,4,2,4,4,4,4,5,2,5,4,3,4,5,3
METU,1995,2,1,1,7,1.6,52,4,2,0,0,1,20,1,2,37.1,36.8,36.95,39.91169739,32.84030151,74,12,09:45:10,3,2,1,1,NA,4,4,4,4,8,5,5,5,1,NA,2,4,3,1,4,1,2,3,1,NA,NA,NA,NA,NA,NA,NA,NA,NA,NA,4,1,5,4,4,4,2,5,4,5,5,3,5,2,3,3,2,2,2,2,2,2,2,3,4,2,3,1,1,1,1,1,1,1,1,1,5,1,1,4,1,1,1,1,1,1,4,7,5,4,6,7,7,5,6,7,5,6,6,2,3,2,6,7,1,1,1,2,1,1,1,1,1,1,1,1,1,1,1,1,1,1,2,5,5,5,5,5,5,5,5,5,6,7,7,7,7,7,7,1,1,1,1,1,1,1,1,3,1,1,1,1,2,3,1,5,6,6,6,5,2,6,1,3,5,5,4,5,5,5,5,5,5,1,1,1,1,1,3,3,4,5,1,5,5,5,5,5,5,5,5,5,1,1,1,1,5,4,5,2,1,4,1,5,5,5,1,5,4,5,5,5,1,5,5,5,5,4,5
Kassel,1995,2,1,2,7,NA,58,5,2,0,0,2,NA,1,2,36.9,37,36.95,51.63330078,9.449996948,81,3,10:09:32,1,1,2,1,NA,4,4,5,NA,5,4,3,3,2,3,2,8,1,NA,NA,1,2,4,1,NA,NA,NA,NA,NA,NA,NA,NA,NA,NA,5,5,5,2,5,5,5,5,4,4,5,5,4,2,4,5,2,2,1,2,2,2,1,3,5,1,2,1,2,1,2,2,1,1,2,2,2,1,1,1,1,1,1,1,1,1,1,1,1,2,1,1,2,1,2,7,2,7,2,1,1,3,2,3,3,3,3,1,3,3,2,3,5,5,4,4,4,3,5,7,7,3,3,5,5,5,5,5,4,2,5,3,3,3,4,4,5,4,4,2,2,2,2,2,2,2,2,2,2,2,2,2,1,3,2,5,7,6,6,6,3,7,2,3,2,5,4,4,5,3,4,5,2,1,2,5,4,1,2,1,2,5,4,4,5,3,4,4,4,4,3,4,2,2,2,2,1,3,2,2,3,4,4,3,4,2,1,4,4,4,4,4,4,4,5,4,2,3,3
Poland,1995,2,1,2,6,1.75,80,2,1,6,2,2,NA,1,2,36.9,37,36.95,52.25,21,68,0,11:18:25,9,1,2,1,NA,4,2,5,NA,5,5,5,5,1,NA,2,3,6,2,8,1,2,1,2,praca,uczelnia,rodzina,trening,przyjaciele,15,2,10,5,4,2,3,3,4,4,4,1,3,2,1,4,4,5,4,2,3,5,5,5,2,1,5,3,4,4,3,2,2,3,4,2,1,1,3,1,4,3,3,3,4,4,1,1,2,1,1,2,2,2,2,2,5,2,2,4,1,1,6,2,2,2,4,3,5,1,4,2,1,2,3,4,2,7,2,2,2,4,5,2,5,7,5,2,5,4,5,5,5,5,4,5,5,3,3,3,3,4,2,3,3,2,4,1,2,2,3,3,2,2,2,3,1,2,3,2,5,5,4,4,2,6,4,4,2,1,5,4,2,2,2,3,5,2,2,3,2,2,2,5,4,2,4,5,4,5,3,3,4,4,3,4,4,2,2,2,1,3,3,3,2,1,3,2,1,2,2,4,5,5,3,3,5,4,4,4,5,5,3,5
Tsinghua,1995,2,1,2,5,1.69,62,3,2,1,0,2,0,1,2,37.1,36.8,36.95,39.92889404,116.3883057,21,11,10:55:45,7,3,2,1,0,4,4,5,0,8,2,8,3,1,1,2,8,1,1,1,1,2,1,2,NA,NA,NA,NA,NA,0,0,0,0,0,3,3,2,3,3,4,2,3,2,4,3,3,3,2,2,2,2,3,2,3,3,3,3,2,4,2,2,3,4,2,4,4,4,3,4,4,4,4,4,4,3,2,2,2,2,2,4,4,2,2,5,4,5,3,5,3,3,3,3,3,2,3,2,5,2,5,3,2,3,4,5,4,2,4,3,3,5,3,3,2,2,3,4,5,5,5,4,5,5,5,5,5,4,4,3,3,4,3,4,3,3,2,3,3,4,4,4,3,3,3,2,3,2,3,2,4,5,5,2,5,2,4,4,3,4,4,1,3,2,2,2,4,2,1,2,4,4,2,4,4,2,3,4,4,3,4,3,4,4,3,3,3,3,2,2,2,2,3,2,2,2,4,3,4,3,3,1,4,3,4,3,3,3,4,3,3,3,2,4
Tsinghua,1995,1,1,1,7,1.85,70,1,2,9,4,1,10,1,2,37,36.9,36.95,30.58009338,114.273407,74,16,10:43:05,7,3,2,1,0,4,4,5,0,8,1,8,6,1,1,2,3,3,1,2,7,2,1,1,Ó¢Óï»°¾çÉç,NA,NA,NA,NA,1,NA,NA,NA,NA,2,3,2,4,2,2,1,1,1,2,2,1,2,4,4,2,3,4,3,4,4,4,4,4,2,4,2,4,4,3,4,3,4,4,4,4,4,4,3,4,3,2,3,3,3,4,4,6,5,5,6,6,4,5,6,6,5,6,7,5,5,5,5,6,5,6,3,3,2,2,3,2,6,6,3,3,6,3,2,3,5,2,5,5,5,5,5,5,5,5,5,5,5,2,4,7,6,5,6,4,2,4,3,4,4,4,4,3,2,2,2,2,2,1,1,4,5,7,2,2,3,3,2,4,5,4,3,3,3,5,4,4,2,1,3,5,5,4,5,5,2,3,4,5,4,4,3,4,4,2,4,4,2,2,2,4,2,5,4,4,2,4,4,3,4,2,3,5,4,3,4,2,2,5,3,2,5,2,2
Kassel,1995,2,1,1,4,1.65,61,4,2,2,0,2,NA,1,2,37.03,36.97,37,51.75709534,8.729995728,81,3,10:29:25,1,1,1,1,NA,4,2,4,4,5,5,3,3,2,1,2,7,1,NA,NA,1,1,NA,1,NA,NA,NA,NA,NA,NA,NA,NA,NA,NA,4,3,4,4,4,4,4,4,3,4,5,4,5,2,3,3,3,2,2,2,3,2,2,3,4,2,2,3,1,1,2,4,1,2,2,2,2,1,4,1,1,1,1,1,1,1,2,2,3,2,2,2,3,5,2,4,2,2,2,2,1,2,1,2,2,2,2,5,3,1,1,1,2,2,2,2,2,2,1,4,4,2,2,4,4,4,4,4,4,3,4,4,5,5,5,4,4,4,5,2,2,1,2,2,2,2,2,2,2,1,2,2,2,4,2,4,5,6,3,3,4,3,4,3,3,4,2,3,2,2,3,4,4,1,3,3,3,3,2,2,2,4,4,3,4,3,3,3,3,3,2,2,1,1,4,4,2,4,3,2,2,3,3,4,4,2,2,4,4,2,2,3,2,4,2,4,4,2,4
UCSB,1995,2,1,2,7,1.6256,52.27272727,4,1,0,0,2,NA,1,2,37,37,37,34.41940308,-119.7071991,45,6.111111111,NA,5,1,2,1,NA,4,2,5,NA,6,1,6,6,1,NA,2,8,1,NA,NA,3,1,NA,1,NA,NA,NA,NA,NA,NA,NA,NA,NA,NA,5,2,5,4,3,3,5,4,4,4,4,4,4,2,2,4,3,3,3,3,2,3,2,3,5,2,3,4,2,2,2,2,2,2,4,4,4,2,2,4,2,1,2,2,2,2,2,3,3,2,2,3,2,2,5,3,3,3,2,2,2,3,2,5,2,2,2,6,5,5,3,6,5,6,2,3,2,1,5,6,6,5,3,4,4,4,5,5,4,3,4,4,4,5,4,4,5,4,4,2,2,1,2,2,1,2,2,2,4,4,2,2,2,2,2,3,4,5,2,2,3,3,1,4,2,4,2,4,4,4,4,4,2,1,2,2,4,2,4,4,2,2,4,4,4,3,4,4,4,3,2,4,2,2,2,2,5,4,4,2,2,2,4,4,2,2,1,4,4,2,2,4,2,4,2,4,4,2,4
SMU,1995,2,1,1,7,1.45,50,3,2,2,0,2,NA,1,2,37,37,37,NA,NA,70,27,10:27:05,5,1,2,1,NA,4,4,5,NA,4,3,6,6,2,3,2,8,1,NA,NA,1,1,NA,2,Muslim Society,Tax Group,Study Buddies,Company Law Group,DA Group,5,3,2,2,1,1,1,2,4,2,3,1,1,2,1,2,1,5,4,3,3,3,3,2,4,3,3,4,3,5,3,5,2,4,2,4,4,3,1,2,4,4,4,4,4,4,4,4,4,3,4,4,6,1,2,6,2,6,5,5,5,2,6,2,2,2,3,5,7,2,6,2,6,2,6,6,6,2,2,2,2,4,2,4,5,6,3,2,4,2,3,3,2,4,3,3,3,3,6,6,5,5,3,3,4,4,2,3,4,3,4,2,2,4,2,2,4,2,4,3,3,3,4,3,3,3,3,2,4,4,4,2,4,2,1,3,4,2,2,4,4,4,4,3,2,2,2,4,2,3,4,4,2,1,4,4,3,2,2,2,2,2,3,4,2,2,4,4,2,4,2,2,3,4,4,4,3,2,4,4,3,3,4,4
Tsinghua,1995,2,1,1,7,1.62,46.5,2,2,0,0,2,0,1,2,36.8,37.2,37,30.58009338,114.273407,79,17,09:50:32,7,3,2,1,0,4,1,5,0,2,1,3,3,1,1,2,8,1,1,1,4,2,1,2,NA,NA,NA,NA,NA,NA,NA,NA,NA,NA,3,4,4,3,4,3,2,4,1,3,4,3,3,3,3,3,3,3,2,3,3,3,3,2,3,2,2,4,4,2,4,2,2,2,4,4,4,3,4,4,2,3,3,3,3,3,3,4,4,5,4,5,4,5,5,4,3,5,3,4,5,6,4,4,2,3,3,4,3,3,4,4,2,4,4,4,6,4,5,3,4,3,4,3,3,2,2,2,3,3,3,3,5,2,2,4,4,4,4,3,3,2,2,3,2,4,3,3,2,2,2,3,2,3,2,4,6,4,6,6,4,6,2,2,4,4,2,2,2,2,4,4,3,1,3,2,2,2,4,4,4,3,3,3,4,4,4,4,2,2,3,3,3,3,3,2,4,3,3,2,3,3,4,4,4,4,4,4,4,3,2,4,2,4,3,4,4,3,4
SMU,1995,2,1,2,7,1.54,48,4,2,2,0,2,NA,1,2,37,37,37,1.293106079,103.8558044,70,26,09:53:09,5,1,2,1,NA,4,2,5,NA,4,2,6,6,2,8,2,8,3,1,5,2,1,NA,1,NA,NA,NA,NA,NA,NA,NA,NA,NA,NA,2,2,2,4,5,5,1,3,2,1,2,2,2,4,3,4,4,4,4,2,4,4,5,2,3,3,4,3,4,2,2,2,4,4,3,5,4,4,2,4,2,1,4,2,4,2,2,4,5,5,2,6,5,2,5,4,1,5,2,2,1,5,3,2,2,4,3,3,3,2,2,2,3,4,4,6,5,5,2,3,3,4,4,4,4,4,4,3,3,3,3,4,5,7,5,4,4,4,4,2,2,1,2,3,1,4,2,2,4,1,2,4,3,2,4,5,2,1,4,1,1,1,4,4,3,3,1,4,3,4,3,4,2,1,4,3,4,4,2,2,3,3,3,3,4,4,4,4,4,4,4,3,2,2,3,3,1,2,4,4,4,2,2,2,2,2,2,4,4,3,4,4,3,4,4,4,4,2,1
Tsinghua,1995,2,1,2,7,1.63,55,2,2,1,0,2,0,1,2,37,37,37,30.66670227,104.0667114,83,17,11:01:04,7,3,2,1,0,4,4,5,0,1,0,3,3,1,1,2,6,1,1,1,1,2,1,2,NA,NA,NA,NA,NA,NA,NA,NA,NA,NA,3,2,2,3,4,5,1,3,2,2,2,3,3,2,2,2,4,4,4,5,2,4,5,1,2,5,3,4,4,2,3,4,3,2,4,4,4,4,4,4,2,2,2,2,4,3,4,4,4,4,4,4,4,4,4,4,4,4,4,4,4,4,4,4,4,4,4,4,4,4,4,4,4,4,4,4,4,4,4,4,4,4,4,4,4,3,4,4,4,4,4,4,3,3,3,6,6,5,5,3,3,3,3,3,3,3,3,3,3,3,3,3,3,3,3,4,4,5,1,4,1,1,3,3,4,4,1,2,2,2,2,4,3,2,3,3,3,3,4,4,2,2,4,4,2,2,2,3,3,3,3,3,3,3,3,3,2,3,3,2,2,3,4,3,3,2,4,4,4,2,2,2,3,2,2,2,3,2,3
VCU,1995,2,1,1,1,1.651,62.72727273,5,2,3,2,2,NA,2,2,36.94444444,37.05555556,37,37.55259705,-77.49939728,81,14.44444444,10:31:52,5,1,2,1,NA,4,4,5,NA,4,2,8,8,1,NA,2,4,3,1,4,1,2,2,2,Service learning,zta,NA,NA,NA,1,5,NA,NA,NA,5,4,4,3,5,4,2,4,2,3,5,4,2,3,4,4,3,3,3,3,3,3,3,2,5,2,3,4,4,3,5,2,2,3,4,5,4,5,4,4,4,2,4,4,2,3,4,3,3,5,4,3,2,3,4,4,4,5,3,4,4,3,3,6,6,3,4,5,4,3,4,3,4,4,7,3,1,2,4,5,4,3,3,5,5,5,5,5,5,3,5,5,4,5,6,6,7,5,6,3,3,1,2,1,1,3,3,2,1,3,3,3,2,3,3,4,5,7,6,6,6,6,2,2,4,4,4,4,4,5,5,2,2,3,3,4,4,3,4,3,2,2,5,5,5,5,5,4,3,4,2,3,2,1,4,4,4,3,2,1,4,4,4,4,5,3,2,5,5,4,5,3,2,4,4,4,4,2,3
UCSB,1995,2,1,2,7,1.7018,53.63636364,3,1,4,0,2,NA,1,2,37,37,37,34.50210571,-120.1287003,87,8.333333333,NA,5,1,2,1,NA,4,4,3,4,7,1,5,5,1,NA,2,3,3,1,3,1,2,1,1,NA,NA,NA,NA,NA,NA,NA,NA,NA,NA,5,4,3,1,1,3,2,4,1,4,5,3,1,5,3,5,1,2,2,3,4,1,3,4,5,1,5,3,4,3,5,4,3,5,5,5,5,5,5,5,5,3,3,5,3,5,5,7,7,2,7,7,7,1,7,7,1,6,7,5,7,7,7,7,1,1,1,3,1,1,1,3,1,7,3,1,1,1,2,1,1,1,1,5,5,5,5,5,5,5,3,3,6,7,7,7,7,7,7,3,2,5,1,3,4,5,1,1,3,2,3,1,1,1,1,5,4,7,2,3,6,6,1,5,5,5,1,1,5,5,5,5,5,1,5,5,5,2,5,4,5,5,5,5,5,5,1,5,3,2,5,1,1,1,1,1,3,3,1,1,1,5,5,5,5,5,3,5,5,5,5,5,2,5,5,1,3,1,4
Tsinghua,1995,2,2,2,6,1.68,57,4,2,0,0,1,1,1,2,36.9,37.2,37.05,35,105,72,14,10:31:58,7,3,2,1,0,4,2,5,0,2,2,6,6,1,1,2,8,1,1,1,1,2,1,2,NA,na,na,na,na,NA,NA,NA,NA,NA,2,3,3,4,3,2,2,2,2,3,3,3,4,2,3,2,3,3,2,3,2,2,3,3,2,2,2,2,2,2,4,3,2,1,2,3,2,2,2,2,2,2,2,2,2,4,2,5,3,3,4,4,5,5,4,3,4,2,2,4,2,2,2,5,2,2,3,3,3,2,3,5,3,2,3,3,2,3,5,6,6,5,4,5,5,3,5,5,4,4,4,4,6,3,5,3,4,6,6,4,2,2,2,3,2,3,2,2,3,2,2,2,2,3,2,5,6,4,2,2,5,4,3,5,5,5,1,2,2,3,2,5,2,2,4,5,2,3,2,3,2,2,3,5,4,3,2,3,3,3,3,3,3,3,2,1,2,4,3,2,4,4,4,3,3,3,4,4,3,2,2,2,2,4,3,4,3,4,2
Tsinghua,1995,1,1,1,7,1.7,60,2,2,0,0,2,0,1,2,37,37.1,37.05,30.58009338,114.273407,74,16,10:23:13,7,3,2,1,0,4,4,5,0,6,3,6,4,1,1,2,3,3,1,2,1,2,1,2,NA,NA,NA,NA,NA,NA,NA,NA,NA,NA,4,4,4,4,4,4,2,4,2,3,4,2,4,2,2,2,2,2,2,2,2,2,2,2,4,2,2,2,2,2,2,2,2,2,4,4,4,2,2,2,2,2,2,2,2,2,2,6,2,2,5,6,3,2,3,3,3,2,2,2,3,2,2,4,2,6,2,4,2,2,2,2,2,2,2,2,2,2,6,2,5,2,2,4,4,4,4,4,4,4,4,4,2,2,4,2,2,2,2,2,2,2,2,2,2,2,2,2,2,2,2,2,2,4,2,2,2,4,2,2,1,2,2,4,4,4,2,4,4,4,4,4,2,2,4,2,2,2,4,4,2,2,2,4,4,2,2,4,4,4,4,4,2,2,4,2,4,4,4,2,2,4,4,4,4,2,2,4,4,2,2,2,2,2,2,2,4,2,2
Serbia,1995,2,3,2,3,1.67,49,3,2,0,0,2,NA,1,2,37,37.1,37.05,44.81860352,20.46809387,70,1,09:22:37,6,1,2,1,NA,4,4,5,NA,3,1,4,3,1,NA,2,3,1,NA,NA,1,1,NA,1,NA,NA,NA,NA,NA,NA,NA,NA,NA,NA,2,4,4,2,3,3,4,3,2,4,3,2,3,4,2,3,3,3,3,4,4,2,2,3,4,3,4,2,3,3,2,4,2,1,3,2,4,4,3,2,2,1,1,1,3,2,2,4,2,2,2,2,5,8,2,3,2,NA,2,2,2,5,5,4,5,5,4,8,4,4,3,5,5,6,4,3,6,6,8,6,7,3,6,5,4,4,4,4,4,4,4,4,5,5,5,4,3,4,5,3,2,3,2,2,4,3,4,4,4,2,2,2,1,2,2,5,4,3,4,4,1,1,4,2,4,2,1,2,2,2,2,4,4,2,2,2,4,3,3,4,3,2,3,2,3,4,3,2,2,4,4,3,2,2,3,3,1,4,2,2,2,4,2,4,2,3,4,4,4,2,2,2,2,2,4,2,3,3,2
SMU,1995,2,1,1,7,1.53,60,2,2,11,1,2,NA,1,2,37,37.1,37.05,1.293106079,103.8558044,71,26,10:05:16,5,1,2,1,NA,4,4,5,NA,1,NA,1,2,2,2,2,3,1,NA,NA,3,1,NA,1,NA,NA,NA,NA,NA,NA,NA,NA,NA,NA,1,1,1,2,2,4,1,2,2,1,2,2,2,5,4,4,3,1,2,3,4,3,2,5,4,2,5,3,1,1,5,1,5,5,5,1,3,1,5,5,1,1,5,1,1,1,1,7,7,7,7,7,7,7,7,7,7,7,7,7,7,1,7,7,7,1,1,1,1,1,1,7,4,1,1,7,1,1,1,1,1,1,7,5,5,5,5,5,5,3,5,5,7,7,7,7,6,6,7,5,5,1,5,5,5,5,4,2,5,4,1,3,2,3,1,4,3,6,2,4,4,4,4,2,4,2,1,1,1,5,5,5,3,5,2,1,5,1,1,3,3,5,4,1,5,5,5,5,5,3,5,4,1,1,1,1,1,3,3,4,1,1,1,5,4,5,4,3,5,5,5,1,1,5,5,1,3,1,5
Tsinghua,1995,1,1,1,4,1.7,75,2,2,2,0,2,0,1,2,37.2,36.9,37.05,30.66670227,104.0667114,87,11,12:47:10,7,3,2,1,0,4,1,4,1,8,1,8,8,1,1,2,8,3,3,8,8,2,1,1,DNF¹Ù·½²âÊÔÍÅ,CFºËÐÄ¾ºÆ·×é,Éó¼Æ×¨ÒµÈý°à,ÐÖµÜ»ï´µ»áÉ§¿Ç×Ó,NA,NA,NA,NA,12,NA,1,2,5,3,5,4,1,1,1,3,2,3,4,2,3,2,2,2,2,3,3,2,3,2,2,5,2,4,4,3,4,3,3,4,4,4,3,3,2,4,2,2,4,2,2,2,3,6,7,6,6,7,2,7,6,6,4,5,4,4,2,4,6,6,2,2,1,3,2,3,2,3,2,1,1,2,2,2,3,2,3,1,3,4,4,4,4,4,3,5,4,4,3,1,3,6,6,4,5,2,2,2,2,2,2,2,2,3,2,2,2,3,2,3,2,4,6,6,2,6,5,4,1,3,4,4,2,4,2,3,3,4,3,2,2,4,3,2,4,2,3,4,1,3,4,3,3,4,3,3,4,4,2,3,3,3,3,4,5,3,1,4,4,3,4,3,2,3,4,4,4,4,2,3,3,3,3,4,2
UCSB,1995,2,1,1,7,1.651,52.27272727,3,1,0,0,2,NA,1,2,37,37.11111111,37.05555556,34.4329071,-119.8370972,81,12.22222222,11:22:00,5,1,2,1,NA,4,4,4,1,5,5,4,4,1,NA,2,8,3,1,6,1,1,NA,2,on campus club,NA,NA,NA,NA,10,NA,NA,NA,NA,4,2,4,4,2,3,3,2,2,3,4,3,2,2,3,5,2,3,2,2,2,3,2,3,5,2,2,2,4,2,4,2,2,2,4,4,5,2,3,3,2,1,1,1,4,1,3,1,2,1,2,1,1,2,2,4,1,2,2,2,2,2,1,3,1,2,1,4,1,2,2,2,2,6,2,2,2,2,2,3,3,2,2,4,5,5,5,5,5,3,5,5,3,4,3,3,3,2,2,2,2,2,2,1,1,2,1,1,1,2,2,2,3,3,2,4,5,6,4,4,4,3,2,4,4,4,2,4,3,4,4,4,2,1,4,2,2,4,2,3,2,3,4,3,4,5,4,5,5,2,4,4,1,1,1,4,4,4,2,2,2,3,3,4,3,2,4,4,2,2,2,3,4,2,2,4,2,4,1
VCU,1995,2,3,2,7,1.7272,78.63636364,4,2,4,0,2,NA,1,2,37.11111111,37.05555556,37.08333333,37.55220032,-77.45819855,52,7.222222222,11:07:25,5,1,2,1,NA,4,4,5,NA,1,NA,2,2,2,1,2,6,3,1,5,2,1,NA,2,BAC,NA,NA,NA,NA,6,NA,NA,NA,NA,4,5,4,1,2,2,3,3,2,1,4,5,3,3,5,5,3,3,3,4,4,3,3,4,5,3,2,3,4,2,3,2,3,3,2,2,4,4,4,4,3,2,2,2,1,2,3,2,3,4,3,3,5,5,3,3,2,4,3,2,2,4,4,4,3,7,5,7,4,5,5,5,4,5,4,4,3,4,6,4,4,5,4,5,5,5,5,5,5,5,5,5,7,6,6,6,5,5,5,4,4,2,4,2,3,4,3,5,2,2,2,3,2,2,3,3,4,4,1,3,1,1,1,2,2,5,5,4,4,5,3,2,2,3,1,2,4,2,3,2,4,3,3,4,4,5,5,4,5,4,3,3,2,1,3,2,5,4,3,4,2,3,4,4,3,2,1,3,4,2,3,3,2,4,3,4,3,2,4
UCSB,1995,1,1,1,6,1.7272,59.09090909,3,1,17,0,1,2,1,2,37.03333333,37.16111111,37.09722222,34.50210571,-120.1287003,65,9.444444444,NA,5,1,2,1,NA,4,4,4,1,5,1,8,8,1,NA,2,3,1,NA,NA,5,1,NA,1,NA,NA,NA,NA,NA,NA,NA,NA,NA,NA,3,3,2,1,2,3,2,2,1,4,4,4,5,3,1,3,2,2,2,3,2,2,2,3,4,2,4,1,3,1,1,1,3,3,1,2,1,1,1,1,1,1,1,1,1,1,1,2,4,2,2,2,6,6,2,3,2,6,2,2,2,6,2,2,2,2,2,5,2,2,3,2,3,2,4,4,4,2,5,2,2,2,2,4,4,4,4,4,1,1,3,4,6,7,5,5,5,6,5,2,3,3,2,2,2,3,2,2,2,3,2,1,3,3,2,4,5,3,2,2,1,1,3,3,4,4,4,2,2,2,3,4,2,2,2,2,5,3,2,3,2,3,4,2,3,2,2,3,2,2,2,2,2,2,2,1,2,4,2,2,1,3,4,3,2,2,2,2,5,2,2,2,3,4,2,2,3,4,1
UCSB,1995,2,1,1,6,1.7018,63.63636364,4,1,8,0,2,NA,2,2,36.88888889,37.33333333,37.11111111,34.4329071,-119.8370972,60,9.444444444,11:51:00,5,1,2,1,NA,4,4,5,NA,4,2,6,6,1,NA,2,4,3,1,4,3,2,8,1,NA,NA,NA,NA,NA,NA,NA,NA,NA,NA,3,3,3,2,2,3,5,4,4,3,4,2,2,3,3,4,2,3,2,2,3,3,3,3,5,3,2,3,4,2,4,3,3,2,3,4,4,4,4,4,4,2,2,3,4,3,4,3,3,1,5,5,4,2,4,2,2,6,3,4,4,5,3,4,1,2,2,3,2,2,2,3,2,2,2,2,2,3,4,2,2,2,2,4,4,4,4,4,4,4,3,3,7,5,5,5,6,5,6,3,3,2,2,3,2,4,3,2,4,2,2,2,2,2,2,4,5,6,5,4,4,4,2,3,3,2,2,4,3,4,4,4,3,2,2,4,4,3,3,4,4,4,3,3,4,5,5,4,4,3,3,3,2,2,3,4,3,3,4,2,4,3,4,4,4,4,2,3,4,4,4,3,2,4,3,3,3,2,4
UCSB,1995,2,1,1,7,1.6002,56.81818182,4,1,2,0,2,NA,1,2,37,37.27777778,37.13888889,34.4329071,-119.8370972,83,11.11111111,11:15:00,5,1,2,1,NA,4,4,4,1,5,2,8,8,2,2,2,2,3,1,6,1,1,NA,1,NA,NA,NA,NA,NA,NA,NA,NA,NA,NA,5,4,4,5,5,5,4,3,4,5,4,5,5,2,2,4,2,3,2,4,2,3,2,3,4,3,2,1,3,2,1,2,1,3,2,3,4,3,2,4,2,2,2,2,2,2,4,1,2,1,2,2,1,2,2,2,2,1,1,1,1,1,1,2,2,2,1,2,2,2,2,2,2,2,2,2,1,1,1,1,2,1,2,5,5,5,5,5,3,1,3,3,5,6,6,6,7,5,5,2,2,1,2,2,2,2,2,2,2,2,2,4,2,4,2,3,3,4,2,2,2,2,1,2,4,4,1,1,2,3,4,4,4,2,4,2,2,4,2,2,3,3,2,2,4,3,3,4,4,4,4,4,2,2,3,3,4,4,4,4,1,2,3,3,4,3,2,4,4,2,2,4,2,2,2,4,4,2,4
Tsinghua,1995,2,1,2,6,1.5,54,2,2,1,0,2,0,1,2,37.1,37.2,37.15,30.58009338,114.273407,71,14,11:15:16,7,3,2,1,0,4,1,5,0,2,1,4,1,2,1,2,4,1,1,1,1,2,1,1,Ö¾Ô¸ÕßÐ­»á,NA,NA,NA,NA,2,NA,NA,NA,NA,2,4,1,2,4,3,1,3,2,4,4,2,4,2,3,3,3,4,4,4,2,4,4,4,3,3,2,3,4,3,4,3,3,4,2,4,4,3,3,4,2,2,2,2,2,3,2,4,2,2,5,4,5,2,5,6,4,3,4,3,2,3,2,5,2,3,2,4,4,4,3,5,5,6,3,2,6,2,6,3,6,5,4,2,2,2,2,2,2,2,2,2,3,2,5,4,6,6,6,2,4,1,4,3,2,4,4,2,2,2,2,2,1,3,2,4,2,4,2,2,2,2,2,5,4,3,1,2,1,3,2,5,4,1,4,3,3,3,4,3,2,2,2,4,2,2,2,3,3,3,3,3,3,3,2,4,5,4,3,1,2,4,2,4,3,4,2,3,3,3,2,2,2,2,2,2,2,2,2
Tsinghua,1995,2,1,2,7,1.68,53,3,2,12,4,2,0,1,2,37.2,37.1,37.15,30.58009338,114.273407,71,14,11:07:45,7,3,2,1,0,4,4,5,0,4,4,6,6,1,1,2,8,1,1,1,4,2,2,2,NA,NA,NA,NA,NA,NA,NA,NA,NA,NA,3,2,3,3,4,2,2,2,2,2,3,2,3,2,3,4,3,3,4,3,4,4,2,2,3,1,4,4,4,2,4,4,4,4,4,5,4,4,4,4,4,4,4,4,3,2,4,2,3,4,3,6,4,5,4,3,2,2,3,5,3,2,5,3,2,4,2,6,5,3,6,2,5,5,3,1,4,2,2,3,5,4,5,4,4,4,5,5,4,5,5,4,3,2,4,3,4,5,5,2,4,2,3,2,2,3,4,3,3,2,3,2,2,3,3,4,6,5,5,6,2,5,2,4,4,4,3,2,2,3,4,4,3,1,2,4,4,3,4,4,2,2,4,5,4,3,4,4,3,3,4,4,2,2,3,2,5,5,4,4,2,4,3,3,4,4,4,4,4,3,3,4,2,3,2,4,4,2,3
Tsinghua,1995,2,1,1,7,1.58,43,5,2,0,0,2,0,1,2,37.1,37.2,37.15,30.58009338,114.273407,65,16,10:33:44,7,3,2,1,0,4,4,5,0,3,1,4,2,1,1,2,8,2,1,1,1,2,1,2,NA,NA,NA,NA,NA,NA,NA,NA,NA,NA,3,5,2,4,5,5,1,2,3,2,3,4,3,2,2,2,2,3,1,2,2,2,4,2,4,3,1,5,5,4,5,2,4,5,3,5,4,4,4,4,3,3,3,3,2,4,4,4,3,4,4,6,5,4,5,3,3,2,2,4,3,3,2,4,3,3,2,2,2,2,2,2,2,2,3,4,2,3,2,2,3,2,4,3,3,3,3,4,3,4,3,4,1,1,3,3,2,2,2,3,3,1,3,3,3,2,3,4,2,2,2,3,3,3,2,3,4,4,4,4,1,4,1,3,5,5,1,5,2,2,4,5,3,1,1,4,4,4,4,4,2,2,4,5,4,3,3,5,4,3,4,3,1,3,1,4,4,3,3,2,3,4,3,2,3,3,2,5,4,4,3,2,3,3,4,3,3,2,4
Tsinghua,1995,2,1,2,7,1.53,42,3,2,3,0,2,0,1,2,37.1,37.3,37.2,30.58009338,114.273407,65,16,10:27:05,7,3,2,1,0,4,1,5,0,1,0,4,3,1,1,2,2,3,1,2,3,2,1,1,Ìù°É,NA,NA,NA,NA,NA,NA,NA,NA,NA,3,1,1,2,3,5,1,2,1,1,3,2,3,3,3,3,3,2,1,2,4,2,3,3,4,3,3,5,4,4,4,5,3,3,5,5,4,4,5,5,4,4,4,2,4,4,3,6,6,6,7,6,6,6,6,3,3,1,4,5,1,6,6,6,3,6,1,7,4,3,6,6,3,4,2,3,3,1,5,2,3,3,5,5,5,5,5,4,4,5,5,5,4,2,4,4,5,6,5,4,4,4,3,4,2,4,2,3,3,4,4,4,2,4,2,3,3,4,2,2,3,4,2,4,4,4,1,2,2,4,2,4,2,2,1,5,3,2,2,3,1,1,4,4,4,2,3,5,5,3,4,5,1,1,1,4,4,4,5,1,2,4,4,3,4,3,2,5,4,4,2,3,3,3,5,4,4,2,3
UCSB,1995,1,1,2,3,1.651,61.36363636,3,1,0,0,2,NA,2,2,37.5,36.94444444,37.22222222,NA,NA,62,16.66666667,NA,5,1,2,1,NA,4,3,2,1,4,1,4,4,1,NA,2,2,1,NA,NA,1,1,NA,1,NA,NA,NA,NA,NA,NA,NA,NA,NA,NA,3,3,5,3,2,3,1,3,3,3,4,4,3,3,4,4,2,3,3,3,4,2,3,3,4,3,4,3,4,3,4,2,4,4,4,4,4,2,4,3,3,1,3,2,1,2,4,4,4,4,4,4,4,4,4,4,4,4,4,5,4,4,4,3,4,4,4,4,5,4,4,4,4,4,4,4,4,4,4,4,4,4,4,5,4,4,4,4,4,4,4,4,2,4,4,4,4,2,2,3,3,3,2,3,3,3,3,3,3,3,2,3,2,3,3,5,5,3,2,2,5,2,3,5,4,3,1,2,3,3,2,5,4,3,4,5,4,3,2,3,2,4,4,3,4,4,4,3,3,4,3,3,3,3,3,3,3,3,3,3,4,3,4,4,3,3,3,3,3,3,3,3,4,4,4,3,2,3,3
Serbia,1995,2,1,1,6,1.63,45,1,2,0,0,1,4,1,2,37,37.5,37.25,44.81860352,20.46809387,44,12,10:44:05,6,1,2,1,NA,4,4,4,2,5,1,4,4,1,NA,2,8,1,NA,NA,1,1,NA,1,NA,NA,NA,NA,NA,NA,NA,NA,NA,NA,3,3,3,2,4,5,1,5,1,1,5,3,4,3,4,4,3,2,2,3,4,3,3,4,4,2,4,2,2,2,2,3,2,3,2,2,3,3,3,3,3,3,2,3,3,2,3,2,3,8,2,4,2,2,2,NA,2,4,2,3,2,5,2,5,8,5,NA,7,NA,2,4,5,5,5,NA,4,NA,NA,5,6,6,4,NA,2,3,2,2,2,2,1,2,2,7,5,5,5,5,6,5,5,5,2,4,5,5,5,5,4,5,4,1,1,1,2,1,5,7,5,6,7,7,5,1,3,3,4,1,5,3,4,5,5,4,4,2,3,5,5,5,5,5,5,1,4,4,1,3,5,5,2,5,5,5,3,3,1,1,5,4,4,1,3,2,5,3,2,1,4,4,2,4,4,2,2,4,4,3,2,4
VCU,1995,2,1,1,7,1.6256,68.18181818,4,2,6,0,2,NA,1,2,37.11111111,37.44444444,37.27777778,37.55220032,-77.45819855,91,14.44444444,10:54:58,5,1,2,1,NA,4,4,5,NA,4,1,7,7,2,1,2,3,1,NA,NA,1,1,NA,1,NA,NA,NA,NA,NA,NA,NA,NA,NA,NA,3,3,4,3,4,2,3,2,4,4,4,5,4,3,3,3,3,3,3,3,3,3,3,3,3,3,3,3,3,3,3,3,3,3,3,3,3,3,3,3,3,3,3,3,3,3,3,2,2,2,4,2,3,3,2,2,3,2,2,2,3,2,2,2,3,2,2,2,2,3,2,3,3,2,2,2,2,2,3,2,2,2,2,4,4,4,4,4,4,4,4,4,3,3,2,2,2,2,2,2,3,2,3,2,2,2,2,4,2,2,2,2,2,3,3,4,4,1,1,1,1,1,4,2,2,4,3,3,5,3,3,3,2,2,3,3,2,2,2,2,3,3,4,4,4,4,4,4,4,4,3,3,2,2,3,2,4,4,4,2,2,4,4,4,3,3,2,3,4,4,3,4,3,4,3,3,3,4,3
Kassel,1995,2,1,1,7,1.61,54,4,2,0,0,1,10,1,2,37.4,37.2,37.3,49.99159241,8.677505493,79,0,10:18:12,1,1,1,1,NA,4,4,4,4,4,2,3,3,1,NA,2,3,3,1,1,3,1,NA,1,NA,NA,NA,NA,NA,NA,NA,NA,NA,NA,2,3,3,5,2,3,2,2,2,3,2,4,2,3,3,2,2,2,3,3,3,3,3,3,4,2,3,2,4,2,4,2,2,2,2,4,4,4,4,4,2,1,1,2,4,1,2,3,2,2,1,1,1,6,1,3,1,6,1,1,2,1,1,2,1,1,1,1,1,1,1,1,1,7,1,1,1,1,1,3,3,1,1,5,5,5,5,4,4,4,5,5,5,5,5,5,5,5,5,3,3,1,3,4,3,3,2,1,1,2,2,2,2,2,2,5,7,7,7,7,5,5,5,3,4,5,3,2,2,4,2,4,3,2,4,4,2,3,2,2,2,4,2,3,3,4,4,4,4,3,3,3,1,1,1,1,4,4,3,2,3,2,4,2,4,4,4,4,2,4,4,4,2,3,3,4,3,4,2
Tsinghua,1995,2,1,1,1,1.61,48,4,2,1,0,2,0,1,2,37.4,37.3,37.35,30.58009338,114.273407,87,17,11:11:28,7,3,2,1,0,4,4,5,0,6,3,5,3,1,1,2,3,3,1,2,1,2,1,2,NA,NA,NA,NA,NA,NA,NA,NA,NA,NA,3,4,4,4,4,4,1,4,2,3,3,4,3,1,2,2,3,4,2,4,2,3,4,2,3,4,2,5,4,3,5,4,3,2,4,5,5,5,5,3,1,4,1,4,1,4,5,3,2,3,2,6,1,6,6,6,2,5,1,2,2,2,2,2,1,2,2,2,1,2,1,2,2,4,2,2,2,2,2,1,2,6,3,4,3,4,3,4,2,4,4,4,2,1,1,4,3,2,2,2,3,5,1,5,4,5,1,1,3,1,2,5,1,4,1,4,6,4,6,4,3,4,1,1,4,5,1,2,1,2,2,5,2,1,1,5,3,2,1,3,4,2,4,4,4,4,2,4,4,4,5,5,2,2,1,2,5,4,2,1,1,4,2,4,4,5,1,5,5,5,4,4,2,5,5,3,3,5,1
SMU,1996,1,1,2,7,1.67,59,5,2,0,1,2,NA,1,2,34.8,35.2,35,1.293106079,103.8558044,71,26,09:34:18,5,1,2,1,NA,4,3,5,NA,4,2,2,2,2,1,2,8,1,NA,NA,4,1,NA,1,NA,NA,NA,NA,NA,NA,NA,NA,NA,NA,4,3,4,3,3,4,2,3,3,4,4,4,5,3,2,2,2,2,2,2,2,4,2,5,4,3,2,3,4,3,2,4,4,3,4,4,2,3,4,4,3,2,4,3,4,4,3,7,6,6,7,5,5,5,7,6,1,1,6,4,4,3,5,5,3,5,2,3,2,2,2,2,4,4,3,2,3,4,2,2,3,2,2,4,5,4,4,5,4,3,4,5,5,5,4,3,4,4,3,3,2,3,4,4,2,3,4,2,4,2,4,3,3,3,2,4,4,3,1,1,3,4,4,2,4,4,3,4,3,4,3,4,2,3,3,4,4,4,3,3,2,5,4,3,3,4,2,4,5,2,4,5,2,1,3,2,3,5,3,4,2,3,4,3,4,3,3,4,2,3,4,2,3,3,3,4,2,3,4
METU,1996,2,1,2,6,1.65,50,3,1,9,0,2,NA,1,2,35,35.1,35.05,39.91169739,32.84030151,64,2,10:23:03,3,2,2,1,NA,4,4,5,NA,7,7,8,8,1,NA,2,8,1,NA,NA,1,1,NA,1,NA,NA,NA,NA,NA,NA,NA,NA,NA,NA,3,5,3,4,4,4,2,1,2,3,4,2,4,3,3,4,2,2,2,2,3,2,2,4,4,2,3,4,4,4,4,2,2,4,2,3,5,4,4,3,5,1,3,1,1,1,5,1,2,2,4,5,3,4,4,4,2,3,1,4,1,2,2,3,2,5,5,6,7,6,6,7,7,5,5,3,7,4,6,7,7,4,4,4,4,4,3,4,3,2,2,4,4,6,4,5,3,3,3,2,2,1,3,1,2,3,4,2,3,2,2,2,4,3,4,5,7,4,2,4,2,1,1,2,3,4,1,5,3,2,5,4,4,1,2,4,4,1,1,4,1,3,3,3,4,3,3,3,4,3,3,3,3,1,3,4,4,3,2,2,2,2,4,4,3,2,1,3,4,4,2,4,2,2,2,3,2,1,3
Oslo,1996,2,1,1,6,1.6,45,4,1,NA,NA,2,NA,1,2,34.3,35.8,35.05,59.90879822,10.60969543,68,-4,13:02:43,4,1,2,1,NA,4,4,4,1,8,3,6,6,1,NA,1,NA,1,NA,NA,2,1,NA,1,NA,NA,NA,NA,NA,NA,NA,NA,NA,NA,4,5,5,4,4,4,4,3,2,3,4,4,4,2,3,3,2,2,3,2,3,3,2,3,3,2,2,4,4,2,4,5,2,5,4,5,4,4,4,4,3,2,2,4,2,4,4,5,5,5,5,7,5,5,5,3,2,4,5,3,5,5,2,1,2,4,3,4,4,3,1,2,2,2,5,3,4,4,1,2,2,2,2,5,4,4,5,5,5,2,4,4,4,7,7,7,7,7,7,2,3,1,4,1,1,4,4,1,2,2,1,3,2,1,2,4,6,7,1,4,1,2,2,2,3,3,3,2,4,2,1,2,3,4,3,2,2,3,2,1,4,3,4,3,4,5,5,5,4,4,5,5,1,1,1,4,4,4,3,3,2,2,1,5,3,4,2,5,4,4,5,5,1,4,4,3,3,3,4
Serbia,1996,2,1,1,3,1.65,60,5,2,4,0,2,NA,1,2,35.2,35.1,35.15,44.81860352,20.46809387,65,8,08:42:37,6,1,2,1,NA,4,4,5,NA,5,3,3,3,2,1,2,8,1,NA,NA,3,1,NA,1,NA,NA,NA,NA,NA,NA,NA,NA,NA,NA,4,5,5,5,5,5,3,3,5,3,5,5,3,3,3,3,2,2,1,1,3,2,2,3,4,2,4,2,3,2,2,2,3,3,2,3,4,3,3,2,3,2,2,2,1,2,3,4,4,4,2,4,8,5,4,4,4,NA,2,2,2,2,2,4,2,4,NA,8,NA,2,2,2,NA,NA,NA,NA,NA,NA,2,6,4,NA,NA,5,5,5,5,5,4,4,5,5,2,3,3,3,3,2,2,3,3,1,2,3,1,2,2,1,2,2,2,2,1,2,2,3,3,4,1,3,1,3,3,3,3,4,2,2,3,3,3,4,2,2,3,3,1,3,4,4,3,5,5,5,5,5,1,1,3,1,1,1,2,2,1,2,3,3,3,2,4,4,4,3,4,3,3,4,3,1,4,3,4,3,4,2,3,2,4
METU,1996,1,1,1,6,1.8,95,3,2,68,0,2,NA,1,2,34.6,35.8,35.2,39.91169739,32.84030151,64,2,09:48:26,3,2,2,1,NA,4,4,4,4,5,1,3,3,1,NA,2,4,1,NA,NA,2,2,8,2,ODTU GST,ODTU BKFT,ODTU BIYOGEN,NA,NA,8,5,4,NA,NA,1,5,4,2,4,4,2,2,3,4,4,4,4,3,4,3,2,2,1,2,3,2,3,5,4,3,2,1,1,1,1,2,1,1,1,1,5,2,2,1,3,1,1,1,1,2,4,7,4,4,7,7,5,7,7,5,3,7,5,2,5,1,6,1,6,1,1,4,2,5,7,2,2,2,1,1,1,1,3,2,4,1,1,5,5,5,4,5,1,1,2,2,1,5,4,4,3,3,3,3,4,2,2,4,4,4,4,2,1,3,2,3,2,3,2,3,2,2,2,1,1,1,4,2,5,4,1,1,3,4,2,5,5,3,5,5,5,5,5,3,3,5,3,4,4,5,5,5,5,5,5,5,1,1,1,2,1,4,2,2,2,4,3,4,4,5,4,4,4,5,5,5,4,4,5,5,3,3,4
Oslo,1996,2,1,2,7,1.64,57,3,1,NA,NA,2,NA,1,2,34.6,36.1,35.35,59.91670227,10.75,70,-5,09:55:39,4,1,2,1,NA,4,4,5,NA,5,1,4,3,2,1,2,8,1,NA,NA,1,2,8,2,Politisk ungdomsorganisasjon,Kollokvie,Familie,N?re venner,Venner,6,3,3,2,4,2,2,4,5,5,4,3,4,4,3,4,3,4,4,4,4,3,4,4,4,4,4,4,4,4,3,4,2,2,2,2,4,4,2,4,4,4,4,4,4,4,2,2,2,2,2,4,4,4,4,4,4,4,4,4,4,4,4,4,4,4,4,4,6,4,4,4,4,4,4,4,4,4,4,4,4,4,4,4,4,4,4,4,4,5,4,5,5,4,2,5,5,6,7,6,7,7,7,7,3,3,1,2,3,3,3,2,3,3,2,2,2,2,3,2,5,6,7,4,3,4,4,2,4,3,4,2,2,2,2,4,4,4,2,4,4,2,4,4,2,2,3,4,4,4,4,4,3,4,4,3,4,3,2,3,2,2,3,4,2,2,4,2,4,3,4,4,2,4,4,4,4,4,2,4,4,4,4,3
METU,1996,2,1,2,7,1.57,47,3,1,NA,NA,2,NA,1,2,34.5,36.2,35.35,39.91169739,32.84030151,64,6,10:58:06,3,2,2,1,NA,4,4,5,NA,6,3,3,3,1,NA,2,8,1,NA,NA,1,2,8,2,ODT? K?PR?,NA,NA,NA,NA,10,NA,NA,NA,NA,5,2,4,5,5,5,2,4,2,2,4,4,5,4,2,3,3,3,4,3,3,3,3,3,4,3,3,3,3,4,3,2,1,4,3,3,5,3,5,4,5,1,2,1,3,1,5,4,4,4,4,5,5,5,5,4,4,4,4,4,4,2,4,1,4,2,4,4,6,3,4,6,4,4,4,2,6,4,4,6,6,2,4,5,5,5,5,5,5,5,5,5,5,7,7,7,5,5,5,2,2,2,2,3,2,2,2,2,2,2,2,2,2,4,2,5,8,6,1,4,5,5,1,1,1,4,4,4,3,4,4,3,4,2,2,3,5,3,4,4,2,4,4,3,3,4,4,3,5,3,3,4,3,2,3,4,4,4,5,5,1,2,4,4,3,2,2,4,4,2,2,4,4,4,3,4,4,2,5
Oxford,1996,1,1,2,4,1.7,69,4,2,1,0,2,NA,1,2,34.6,36.2,35.4,51.75,-1.25,74,2.777777778,08:43:44,5,1,2,1,NA,4,4,5,NA,5,5,1,1,1,NA,2,6,1,NA,NA,1,1,NA,1,NA,NA,NA,NA,NA,NA,NA,NA,NA,NA,3,3,2,3,2,2,1,2,3,3,3,2,3,4,3,4,3,2,3,3,4,2,3,2,5,3,3,2,2,2,4,1,2,2,1,2,4,5,4,4,2,1,2,2,2,1,4,4,4,4,4,4,6,4,4,4,4,4,4,4,4,4,4,6,4,4,4,4,4,4,4,4,4,4,4,4,4,4,4,4,4,4,4,4,2,2,5,3,2,2,3,4,3,3,3,3,3,2,2,2,5,1,3,2,1,4,4,2,2,1,2,4,2,4,2,4,4,4,1,3,2,2,5,4,5,5,2,2,2,3,1,5,4,3,5,5,5,3,2,4,1,2,4,2,4,3,4,4,1,2,4,4,1,4,3,1,2,3,2,4,4,3,4,5,3,1,2,4,1,2,4,2,4,2,2,4,2,4,2
Oxford,1996,1,4,2,4,NA,NA,3,2,0,0,2,NA,1,2,34.7,36.3,35.5,51.75,-1.25,89,-1.666666667,08:28:03,5,1,2,1,NA,4,4,5,NA,2,2,3,2,1,NA,2,8,1,NA,NA,1,1,NA,2,Oxford Latin Speaking Society,Oxford Latin Conversation Society,Plato Reading Group,NA,NA,2,4,1,NA,NA,2,3,3,5,5,5,3,4,5,3,4,2,4,5,2,3,2,2,2,2,3,2,4,1,5,3,3,3,2,1,4,3,1,1,1,1,2,3,2,2,2,1,2,2,1,1,2,4,4,4,4,4,1,4,4,4,4,2,4,4,1,4,4,4,4,4,4,4,4,4,4,4,4,4,4,4,4,4,4,4,4,4,4,3,3,4,5,4,3,2,3,3,7,7,6,6,5,3,3,2,3,1,3,2,2,2,2,2,2,1,2,2,4,3,2,3,3,2,1,3,3,1,3,5,4,2,1,2,1,2,2,4,4,2,4,5,2,2,1,3,2,2,4,5,4,2,3,3,2,3,3,4,3,4,3,2,1,2,2,5,2,2,2,4,2,1,4,3,3,1,1,3,4,2,2,2,2,2,2
Poland,1996,2,1,1,7,1.68,57,5,2,0,0,1,6,1,2,35.6,35.4,35.5,52.23330688,21.01669312,85,1,10:13:42,9,1,2,1,NA,4,2,5,1,6,6,3,3,1,NA,1,NA,2,1,1,1,1,NA,1,NA,NA,NA,NA,NA,NA,NA,NA,NA,NA,1,5,5,4,5,5,3,5,5,5,5,5,5,1,2,2,5,4,5,5,2,4,5,2,4,4,2,5,4,2,2,3,2,1,2,3,2,2,2,2,2,3,2,2,2,2,2,1,2,2,1,3,2,3,1,2,3,6,1,1,2,1,1,2,2,2,6,6,5,2,6,7,4,5,7,5,6,7,7,7,7,2,6,4,4,3,4,3,4,2,4,4,1,2,1,1,1,1,2,2,2,2,2,3,4,2,3,1,1,1,1,2,1,3,1,4,4,4,3,2,2,4,5,2,3,5,4,1,3,4,4,2,2,2,3,2,2,2,1,1,3,4,4,3,4,3,3,3,4,4,2,4,4,3,5,2,2,4,5,5,3,3,2,4,3,2,5,3,2,2,3,3,3,4,3,2,3,4,1
Oslo,1996,1,1,1,7,1.8,65,5,2,NA,NA,2,NA,1,2,35.6,35.5,35.55,59.91670227,10.75,58,-2,09:29:38,4,1,1,1,NA,4,4,4,2,8,5,7,7,1,NA,2,8,1,NA,NA,1,1,NA,2,Klatring,.,.,.,.,3,0,0,0,0,2,2,5,4,3,3,1,3,1,5,3,4,4,2,2,2,1,2,2,2,3,2,2,1,4,3,1,1,4,2,3,4,1,2,1,3,4,4,3,3,1,1,1,1,1,1,3,4,1,1,1,7,1,4,2,1,1,3,1,2,1,2,1,3,1,2,1,6,1,1,2,1,1,1,3,3,1,2,1,1,1,1,2,5,5,5,5,5,4,2,4,3,3,6,2,4,2,2,4,1,1,1,2,1,1,1,1,4,1,1,2,3,5,5,5,2,2,1,1,1,1,1,4,2,5,5,4,1,2,2,1,4,2,1,2,3,3,4,1,3,3,2,4,2,5,4,4,5,3,4,2,1,1,2,2,2,2,5,3,4,1,4,3,4,3,2,3,4,2,5,3,3,4,4,2,3,2,4,1
Serbia,1996,2,1,1,7,1.7,58,4,3,8,8,2,NA,1,2,35.5,35.6,35.55,44.81860352,20.46809387,44,12,10:45:05,6,1,1,1,NA,4,4,4,2,5,4,5,5,2,8,2,6,1,NA,NA,5,1,NA,1,NA,NA,NA,NA,NA,NA,NA,NA,NA,NA,5,2,5,5,5,2,1,1,5,4,3,3,3,3,4,3,3,2,2,2,3,3,3,3,4,2,3,4,4,4,4,3,3,4,3,4,4,4,3,3,3,3,3,3,2,3,3,4,1,2,1,1,5,5,1,NA,1,4,8,2,1,2,4,1,1,1,NA,4,NA,1,2,1,3,3,NA,NA,NA,NA,1,4,4,NA,NA,5,5,5,5,5,4,3,4,4,5,4,4,2,3,3,3,4,4,4,2,4,4,4,4,4,4,4,1,4,1,4,1,3,4,4,2,6,6,6,3,4,4,3,2,2,4,4,2,4,3,4,2,4,3,3,4,4,4,5,5,4,5,5,1,1,2,4,4,3,4,2,1,2,2,4,5,2,2,3,2,4,4,4,3,5,5,5,5,5,2,4,3,5,2,4,4
UCSB,1996,2,1,1,7,1.48,50.90909091,3,1,0,0,1,1,1,2,35.55555556,35.55555556,35.55555556,34.13519287,-118.2416,92,13.88888889,NA,5,1,2,1,NA,4,4,5,NA,8,4,7,3,2,1,2,3,1,NA,NA,3,1,NA,2,friends,NA,NA,NA,NA,7,NA,NA,NA,NA,3,3,3,3,3,3,3,3,3,3,3,3,3,3,3,3,3,3,3,3,3,3,3,3,3,3,3,3,3,3,3,3,3,3,3,3,3,3,3,3,3,3,3,3,3,3,3,4,4,4,4,4,4,4,4,4,4,4,4,4,4,4,4,4,4,4,4,4,4,4,4,4,4,4,4,4,4,4,4,4,4,4,4,3,3,3,3,3,3,3,3,3,7,4,4,4,4,4,4,3,3,3,3,3,3,3,3,3,3,3,3,3,3,3,3,1,1,4,5,5,5,5,3,3,3,3,3,3,3,3,3,3,3,3,3,3,3,3,3,3,3,3,3,3,3,3,3,3,3,3,3,3,3,3,3,3,3,3,3,3,3,3,3,3,3,3,3,3,3,3,3,3,3,3,3,3,3,3,3
Serbia,1996,1,1,1,7,1.8,65,4,2,2,0,2,NA,1,2,35.5,35.7,35.6,44.81860352,20.46809387,45,12,10:55:22,6,1,2,1,NA,4,4,4,1,3,2,3,1,2,1,2,8,1,NA,NA,1,1,NA,1,NA,NA,NA,NA,NA,NA,NA,NA,NA,NA,3,3,2,3,4,3,1,1,2,3,2,4,3,2,5,3,2,4,3,3,2,2,3,4,3,2,2,1,2,1,2,2,2,1,1,3,4,2,4,4,3,1,2,2,2,2,3,7,5,2,7,8,7,8,8,3,2,3,2,8,2,2,7,8,2,3,1,8,1,2,2,2,NA,5,3,4,3,5,2,6,6,1,NA,5,5,3,5,5,3,3,3,3,6,2,2,3,4,2,2,3,2,1,2,4,3,3,2,3,2,4,4,2,2,2,1,4,3,4,1,2,3,2,2,3,1,4,1,3,2,4,3,5,2,3,2,3,2,4,4,4,4,5,4,3,4,3,2,3,1,2,4,4,2,3,2,2,2,2,3,4,2,2,3,4,4,3,2,4,4,3,3,4,3,4,4,3,2,4,2
Serbia,1996,2,1,2,7,1.65,50,3,2,0,0,2,NA,1,2,35.7,35.6,35.65,44.7467041,19.69000244,83,4,09:56:43,6,1,2,1,NA,4,4,5,NA,1,NA,3,3,1,NA,2,8,1,NA,NA,1,1,NA,1,NA,NA,NA,NA,NA,NA,NA,NA,NA,NA,4,3,1,3,5,4,4,3,5,1,5,4,5,3,4,4,3,4,4,3,5,3,3,3,4,2,3,1,2,1,1,2,1,1,1,3,3,4,3,3,3,1,3,2,1,2,3,8,5,4,8,5,5,5,8,3,2,6,4,8,4,5,4,8,4,3,3,5,NA,8,3,2,NA,NA,6,NA,5,5,2,3,1,3,4,5,5,5,5,4,5,5,5,4,1,2,3,3,2,2,2,2,2,1,2,1,2,2,3,2,1,2,1,3,2,2,2,3,2,4,1,2,2,2,1,3,1,4,2,3,1,2,5,4,4,4,2,4,4,4,3,4,4,4,3,3,3,3,2,2,1,3,4,3,2,4,2,3,4,4,4,3,2,4,4,4,4,3,2,4,4,4,4,4,4,5,3,3,4,4,3
Oslo,1996,1,1,1,6,1.76,65,3,2,2,0,2,NA,1,2,34.9,36.4,35.65,59.91270447,10.74609375,69,-4,10:48:13,4,1,2,1,NA,4,4,5,NA,6,2,4,3,1,NA,2,6,1,NA,NA,1,1,NA,1,NA,NA,NA,NA,NA,NA,NA,NA,NA,NA,4,2,2,4,3,3,1,3,2,2,4,4,4,3,3,3,2,3,2,3,4,2,2,3,5,2,3,2,4,2,4,2,2,2,2,5,4,3,4,4,3,4,2,4,2,3,2,5,2,2,2,6,3,5,5,2,2,2,2,2,2,4,3,3,2,5,3,4,3,5,3,4,5,3,5,2,5,3,5,4,4,2,3,5,5,4,5,4,4,3,5,4,6,4,3,4,5,5,5,3,3,1,3,4,3,4,2,3,3,4,2,2,2,3,2,4,6,5,1,2,6,3,4,2,3,4,2,2,2,2,2,4,4,2,4,4,2,3,3,2,3,3,4,4,3,4,4,4,2,2,3,2,2,2,2,2,2,4,3,4,4,3,4,4,4,3,4,4,3,4,4,4,3,2,4,2,3,2,4
METU,1996,2,1,2,6,1.74,53,3,1,1,0,2,NA,1,2,35.5,35.8,35.65,39.91169739,32.84030151,70,3,10:31:46,3,2,2,1,NA,4,4,5,NA,8,5,4,4,1,NA,2,8,1,NA,NA,1,1,NA,1,NA,NA,NA,NA,NA,NA,NA,NA,NA,NA,2,5,4,5,5,4,2,2,4,2,4,3,4,5,5,4,3,3,3,3,4,4,4,3,5,3,5,3,3,2,2,4,5,2,2,2,5,3,4,5,4,2,2,2,2,2,4,6,5,6,6,6,6,5,6,6,4,7,4,4,1,5,5,6,2,2,4,6,6,5,4,2,6,7,2,4,6,2,6,5,5,2,4,5,5,5,5,5,5,5,5,5,6,7,7,7,6,5,5,3,4,3,4,3,4,4,3,2,4,2,1,3,2,3,3,5,8,6,3,6,2,2,2,2,4,5,3,3,4,2,4,5,4,1,3,4,4,4,2,3,1,5,4,4,4,4,3,4,5,4,4,5,2,2,2,3,2,4,2,2,2,4,3,3,4,2,2,5,2,2,3,4,3,4,4,3,3,3,5
Oslo,1996,2,1,1,7,1.71,87,4,2,14,24,2,NA,1,2,35.9,35.5,35.7,59.91270447,10.74609375,70,-2,09:44:31,4,1,2,1,NA,4,2,4,1,8,4,8,7,1,NA,2,5,3,8,1,1,1,NA,1,NA,NA,NA,NA,NA,NA,NA,NA,NA,NA,2,4,2,4,2,2,2,3,2,4,2,4,2,2,2,3,2,2,1,2,3,2,1,3,4,2,2,2,2,1,4,3,2,4,2,5,5,3,4,3,2,1,2,1,2,2,4,5,2,4,3,7,3,2,4,4,1,2,2,2,2,6,2,5,2,5,5,6,5,6,2,6,6,3,2,2,3,3,7,3,3,5,1,5,5,4,5,5,5,4,5,5,5,6,6,5,5,4,4,1,4,1,5,3,1,3,5,4,2,2,2,3,2,5,3,5,6,4,1,3,5,3,2,4,4,4,2,2,2,2,2,4,4,1,4,4,4,5,2,3,3,2,1,1,5,5,5,5,3,5,2,2,2,2,4,2,1,4,1,2,4,2,1,4,1,2,2,3,4,5,5,2,5,1,4,1,3,1,4
Oslo,1996,1,1,2,6,1.86,78,3,2,NA,NA,2,NA,1,2,35.5,36,35.75,59.91670227,10.75,70,-7,09:54:17,4,1,2,1,NA,2,2,5,NA,3,1,8,5,2,1,2,3,1,NA,NA,1,1,NA,1,NA,NA,NA,NA,NA,NA,NA,NA,NA,NA,2,2,3,2,2,4,1,3,2,2,3,3,2,4,3,4,3,3,3,3,4,3,3,3,4,3,4,2,3,3,4,3,2,3,2,4,4,4,3,4,2,2,3,2,2,4,2,4,4,3,4,6,5,5,5,4,3,3,3,3,5,5,3,6,3,5,3,5,3,3,2,5,3,3,3,3,3,3,4,4,4,3,3,4,4,3,5,4,4,2,4,4,5,6,5,5,5,5,5,4,4,3,4,3,4,4,4,3,4,2,2,2,3,2,2,4,3,4,2,2,2,2,2,4,4,4,3,2,2,3,4,4,2,2,4,3,3,4,2,3,2,3,4,2,4,3,4,4,4,4,3,4,2,3,3,3,2,2,2,4,2,2,2,4,3,3,4,4,3,4,4,4,3,2,3,3,2,3,2
Oxford,1996,2,1,1,3,1.6764,64,3,1,0,0,2,NA,1,2,35.1,36.4,35.75,51.75,-1.25,74,2.777777778,08:21:43,5,1,2,1,NA,4,4,5,NA,3,2,5,5,1,NA,2,8,1,NA,NA,6,1,NA,1,NA,NA,NA,NA,NA,NA,NA,NA,NA,NA,3,4,4,2,2,2,4,2,2,3,3,3,4,3,3,3,2,2,2,3,4,2,3,2,4,2,3,4,4,2,4,4,2,2,4,4,3,4,4,4,4,2,2,4,2,2,4,5,5,3,5,5,4,6,3,5,4,4,3,2,1,2,4,6,2,4,1,3,2,2,2,2,1,2,1,2,2,1,2,3,2,1,2,4,3,4,4,3,4,2,4,4,4,5,4,4,4,4,4,2,3,1,2,4,1,4,2,2,2,2,4,4,2,3,3,2,3,3,2,3,1,1,2,4,2,5,4,4,4,3,3,4,2,2,3,4,4,2,2,3,3,3,4,4,5,5,5,5,3,4,4,4,2,3,3,1,1,4,2,3,2,3,3,2,4,4,1,2,4,4,4,4,2,4,3,5,3,2,4
Tsinghua,1996,1,1,2,3,1.87,72,4,2,NA,NA,1,0,1,2,35.5,36,35.75,30.58009338,114.273407,72,14,10:30:07,7,3,2,1,0,4,4,5,0,8,1,5,4,1,1,2,3,1,1,1,3,2,1,1,°àÎ¯»á,Ñ§Éú»á,ÀÏÏç»á,NA,NA,7,4,2,NA,NA,2,4,3,3,3,4,1,4,3,5,5,2,5,2,2,3,2,2,1,3,3,2,2,2,5,3,1,4,4,3,4,2,3,4,4,4,3,3,4,3,3,3,2,3,3,3,2,4,4,4,6,6,2,4,2,4,2,1,2,4,2,4,4,4,2,4,2,2,2,2,2,2,1,2,3,2,4,2,2,4,4,2,3,5,5,5,5,5,5,4,5,5,6,2,2,4,4,3,5,3,2,4,2,3,3,3,3,3,3,2,1,1,2,3,2,4,4,4,2,2,2,6,2,2,3,4,1,2,2,3,3,4,3,1,1,4,4,1,4,4,3,3,2,3,4,3,3,4,4,2,4,4,2,1,1,3,4,5,3,2,2,2,4,4,3,2,1,4,2,1,3,4,2,2,4,4,4,3,1
Oxford,1996,1,1,1,7,1.778,57.72727273,4,2,1,0,2,NA,1,2,35.2,36.3,35.75,NA,NA,74,2.777777778,08:51:47,5,1,2,1,NA,4,4,5,NA,5,3,8,8,1,NA,2,8,1,NA,NA,1,1,NA,1,NA,NA,NA,NA,NA,NA,NA,NA,NA,NA,2,3,1,2,1,3,3,4,1,2,5,3,3,4,3,2,3,2,2,1,2,2,2,3,4,1,1,5,5,3,5,4,4,5,1,5,5,5,5,5,5,5,3,5,5,4,5,7,7,7,7,7,7,5,7,5,7,4,7,7,1,4,7,7,6,1,3,4,1,2,1,1,6,6,3,6,2,4,1,7,4,3,5,5,5,5,5,5,5,5,5,5,6,5,3,5,6,6,5,1,1,1,1,1,1,1,3,1,3,1,1,4,2,3,3,3,4,2,2,2,2,3,2,4,4,4,1,5,5,2,2,5,4,1,3,5,5,3,5,1,1,3,4,3,2,5,4,4,5,4,5,5,1,1,1,1,4,3,2,3,2,4,3,2,4,2,1,5,4,4,4,2,2,4,1,2,2,1,1
METU,1996,2,1,2,6,1.72,90,3,1,2,1,1,15,1,2,35.5,36.1,35.8,39.91169739,32.84030151,70,3,10:56:10,3,2,2,1,NA,4,4,5,NA,4,1,7,7,1,NA,2,8,1,NA,NA,1,2,8,2,ODT? Psikoloji Toplulu?u,Dergi 101,NA,NA,NA,7,7,NA,NA,NA,1,1,1,4,1,2,1,1,1,5,1,1,5,5,3,5,4,4,4,5,5,4,4,3,3,5,4,1,4,1,3,3,1,1,1,2,2,2,2,2,2,2,1,2,3,1,2,7,7,7,7,7,7,6,7,7,7,7,6,7,5,7,7,7,5,7,2,7,2,4,3,2,1,1,5,2,1,1,2,6,2,2,3,3,4,4,4,4,5,5,4,2,6,7,6,3,7,5,4,5,3,5,3,1,5,5,4,3,3,5,1,1,3,1,2,5,6,6,1,4,2,1,3,1,4,5,1,2,4,5,3,5,5,1,3,5,5,3,2,3,2,4,4,3,5,2,3,5,5,3,2,2,1,1,1,1,1,3,3,4,1,3,2,4,1,4,2,2,2,5,3,2,3,1,3,1,1,5,5
METU,1996,2,1,2,5,1.7,54,4,2,5,0,1,18,1,2,35.2,36.4,35.8,39.91169739,32.84030151,70,3,09:54:40,3,2,2,1,NA,4,4,5,NA,6,3,6,6,1,NA,2,5,1,NA,NA,1,1,NA,1,NA,NA,NA,NA,NA,NA,NA,NA,NA,NA,2,2,2,2,2,2,2,3,1,2,3,2,2,4,4,4,3,3,4,3,4,3,4,3,5,2,4,5,5,5,5,2,5,5,1,5,5,5,5,5,5,2,1,2,4,2,5,7,6,4,7,6,7,5,7,6,5,7,2,7,6,3,6,5,2,2,2,5,2,3,2,2,2,2,2,3,6,2,2,5,3,1,5,4,4,4,4,4,3,3,3,4,7,7,5,7,7,5,7,2,2,1,2,4,2,3,2,1,2,1,2,1,2,4,1,4,5,2,2,2,1,1,1,4,2,5,4,5,2,2,5,4,4,1,1,4,4,1,5,5,4,4,4,5,4,5,5,5,4,4,4,4,2,4,1,5,5,5,4,4,2,4,1,4,1,5,1,5,1,4,4,2,1,5,5,5,5,1,5
Oxford,1996,1,1,2,5,1.7018,60,2,2,2,0,2,NA,1,2,35.3,36.4,35.85,51.75,-1.25,74,2.777777778,09:09:27,5,1,2,1,NA,2,2,5,NA,5,2,8,8,2,1,2,6,1,NA,NA,2,1,NA,1,NA,NA,NA,NA,NA,NA,NA,NA,NA,NA,4,2,2,2,2,4,1,2,2,3,3,3,4,2,2,4,2,3,2,3,3,2,2,4,5,2,3,5,5,4,4,5,5,5,2,4,2,2,3,3,2,5,4,4,3,3,4,7,7,7,6,6,5,7,7,7,5,7,6,7,4,5,5,6,3,6,3,3,6,5,3,3,3,5,5,2,3,2,3,2,2,2,4,5,4,4,4,4,4,4,4,4,6,5,6,6,5,5,5,5,4,4,2,2,2,2,2,4,2,2,1,4,1,4,2,5,6,5,5,3,6,6,2,3,4,4,2,3,2,4,5,5,2,1,3,5,5,5,4,3,3,4,5,3,4,4,5,5,5,3,5,4,2,2,2,4,2,4,4,5,4,3,5,4,5,3,2,4,5,5,4,4,3,5,4,4,4,1,1
Oslo,1996,2,1,1,7,1.77,65,2,1,5,9,2,NA,1,2,35.61,36.18,35.895,59.94999695,10.75,89,0,11:03:24,4,1,2,1,NA,4,4,4,1,5,4,6,5,1,NA,2,3,1,NA,NA,1,1,NA,1,NA,NA,NA,NA,NA,NA,NA,NA,NA,NA,3,3,4,4,4,5,2,3,3,4,3,3,2,3,3,3,2,2,3,2,4,2,3,4,3,3,4,4,5,3,5,1,2,5,1,5,4,4,4,4,4,2,4,4,2,3,4,5,5,5,5,7,5,2,3,5,3,5,5,5,2,6,5,5,1,4,4,5,2,5,2,3,4,2,4,3,5,2,3,3,4,1,3,5,5,5,5,5,5,3,5,5,4,6,6,5,6,5,5,2,3,1,3,1,2,2,3,3,2,2,4,2,2,5,3,4,6,6,2,5,5,3,2,3,2,4,2,4,4,3,3,5,4,2,3,4,4,2,4,4,2,1,4,5,3,4,4,5,4,3,2,2,1,1,1,4,3,4,3,1,3,2,4,2,5,4,1,4,4,4,3,4,4,4,3,4,4,1,4
Kassel,1996,1,1,2,7,1.87,82,4,2,0,0,2,NA,1,2,36.1,35.7,35.9,51.31660461,9.491195679,48,11,10:49:37,1,1,2,1,NA,4,2,5,NA,8,8,8,5,2,8,2,1,3,1,4,1,2,5,2,Adventjugend Kassel,NA,NA,NA,NA,7,NA,NA,NA,NA,3,2,2,2,4,5,2,3,2,4,3,2,4,3,3,3,2,2,1,4,2,2,1,3,3,4,3,2,4,1,4,2,1,4,3,4,4,4,2,4,2,1,2,1,2,1,1,6,5,5,2,4,6,5,6,5,2,3,2,4,4,5,2,5,2,5,2,6,2,5,1,2,4,4,2,2,2,2,4,5,6,3,2,4,4,4,4,5,3,3,4,4,3,4,4,5,3,3,3,4,4,2,3,2,2,4,3,1,2,2,2,2,3,2,2,4,4,4,5,4,5,3,4,2,2,5,4,1,3,3,2,3,3,1,3,4,3,2,1,3,3,5,4,3,5,4,4,4,2,3,3,2,2,4,4,2,3,4,2,4,1,3,3,4,1,2,3,4,3,4,4,4,2,2,2,3,2,2,2
METU,1996,2,1,2,7,1.6,64,2,2,4,0,2,NA,1,2,35.2,36.6,35.9,39.91169739,32.84030151,70,3,10:38:02,3,2,2,1,NA,4,4,5,NA,4,2,7,7,1,NA,2,8,1,NA,NA,1,2,3,2,K?pr¨¹ Grubu,NA,NA,NA,NA,2,NA,NA,NA,NA,4,3,3,5,4,5,2,1,2,3,3,4,4,3,3,5,3,2,4,4,3,4,3,3,4,3,3,4,4,2,4,4,2,3,3,3,4,4,4,4,4,2,2,2,2,3,4,6,4,4,6,6,6,5,6,6,4,6,5,5,4,7,6,5,2,2,3,5,6,6,5,5,6,4,2,2,3,3,6,4,4,2,4,4,4,3,4,4,4,4,4,4,3,6,6,6,6,5,4,3,4,4,4,3,4,3,3,3,2,3,2,2,2,4,2,4,7,5,6,6,3,1,2,2,4,4,2,4,2,2,4,5,3,1,3,4,3,3,2,4,2,5,4,5,5,4,3,4,4,3,4,3,2,4,2,3,3,4,4,2,2,4,4,3,4,4,2,4,3,2,2,4,4,5,4,3,3,4,2
Serbia,1996,2,3,2,7,1.73,63,4,2,0,0,2,NA,1,2,35.4,36.4,35.9,44.81860352,20.46809387,45,12,11:33:11,6,1,2,1,NA,4,4,5,NA,4,2,7,7,1,NA,2,8,1,NA,NA,1,2,8,2,AIESEC,NA,NA,NA,NA,7,NA,NA,NA,NA,4,3,4,4,3,4,3,3,3,4,3,4,4,2,3,3,2,2,2,3,3,2,2,3,4,2,3,4,4,2,4,4,2,2,2,5,4,4,4,4,2,2,4,4,3,2,4,2,2,1,3,2,2,2,3,NA,1,3,2,2,1,5,2,3,1,2,1,5,1,1,1,4,4,NA,NA,NA,3,NA,3,6,5,NA,3,5,5,5,5,5,3,2,2,3,3,5,4,4,5,4,4,2,2,1,2,1,1,2,2,3,2,1,2,2,2,3,1,4,4,5,1,4,4,4,2,4,4,4,4,4,4,3,3,3,3,2,2,2,3,2,3,4,4,4,4,3,4,4,1,1,2,3,2,4,1,3,1,1,2,3,2,3,3,2,3,4,4,2,1,4,4,4,3,3,4,5,3,2,2,3,1
Oxford,1996,2,3,1,7,1.651,57.15,4,2,18,0,2,NA,1,2,35.8,36.1,35.95,51.75,-1.25,74,2.777777778,08:24:49,5,1,2,1,NA,4,4,5,NA,4,1,8,8,1,NA,2,8,1,NA,NA,5,1,NA,2,socsoc,NA,NA,NA,NA,10,NA,NA,NA,NA,4,2,2,2,3,2,2,1,1,3,3,3,3,2,3,3,2,3,2,2,2,3,3,3,3,3,1,1,1,1,1,1,1,1,1,1,1,1,1,1,1,1,1,1,1,1,1,1,1,1,1,4,3,2,1,2,1,1,1,1,1,1,1,1,1,1,1,1,1,1,1,1,1,1,1,2,1,1,1,2,2,1,2,5,5,5,5,5,5,4,5,5,6,7,7,7,5,5,5,1,1,4,1,1,1,1,1,1,1,1,5,1,1,1,2,4,7,6,7,7,3,6,2,4,4,5,1,3,3,5,3,5,1,2,2,3,3,2,5,1,4,4,4,2,4,5,5,5,4,4,5,5,1,1,1,1,3,4,4,5,1,4,3,5,1,4,1,1,4,3,2,3,1,4,3,2,4,1,4
METU,1996,2,1,2,3,1.63,49,3,2,2,0,2,NA,1,2,35.4,36.5,35.95,39.91169739,32.84030151,69,6,09:37:50,3,2,2,1,NA,4,4,4,1,7,5,4,4,1,NA,2,8,1,NA,NA,3,1,NA,1,NA,NA,NA,NA,NA,NA,NA,NA,NA,NA,4,5,4,4,4,4,3,4,4,3,4,4,5,3,3,4,3,3,2,2,2,2,3,3,4,2,3,2,3,2,2,3,2,3,2,2,4,4,2,4,4,1,2,3,3,2,2,6,3,2,4,6,5,5,4,6,3,4,4,4,5,3,6,5,2,3,2,5,2,5,5,5,6,5,2,2,3,2,3,5,5,2,2,5,5,5,5,5,5,5,5,5,5,6,5,4,4,3,3,2,3,2,3,2,2,2,3,2,2,2,2,2,4,3,2,4,3,5,2,3,4,4,2,2,3,4,3,4,4,4,4,4,4,1,2,4,4,2,4,4,2,4,3,4,4,4,4,4,5,4,3,3,2,2,2,3,5,4,4,3,2,3,2,4,4,2,2,3,2,4,4,4,2,4,4,3,2,4,2
Serbia,1996,2,1,1,1,NA,73,4,2,16,16,1,3,1,2,36,35.9,35.95,44.81860352,20.46809387,45,12,12:49:21,6,1,2,1,NA,4,4,5,NA,4,3,3,3,2,2,2,5,1,NA,NA,3,1,NA,1,NA,NA,NA,NA,NA,NA,NA,NA,NA,NA,5,4,5,5,2,4,5,4,4,5,4,4,5,1,3,2,4,2,1,2,2,2,2,2,4,2,2,2,3,2,2,2,1,4,2,4,3,2,2,2,2,1,1,2,1,4,2,8,5,8,8,7,2,5,8,5,1,4,5,8,2,1,8,1,2,3,1,7,1,2,2,1,7,6,NA,1,3,3,1,7,7,1,3,5,5,5,5,5,5,5,5,5,7,5,5,2,5,4,5,2,2,1,2,2,1,1,1,2,1,4,2,2,1,2,1,5,7,4,3,5,5,5,4,2,5,5,5,2,5,3,3,2,2,2,2,1,4,2,3,5,3,5,5,3,5,5,1,1,1,3,2,2,3,2,2,4,2,4,2,5,3,1,4,3,3,5,2,5,4,3,3,1,3,4,2,1,1,3,3
Oslo,1996,2,1,2,7,1.67,56,3,2,2,8,1,NA,1,2,35.5,36.4,35.95,59.91670227,10.75,87,-1,10:50:03,4,1,2,1,NA,4,4,5,NA,8,6,5,5,2,1,2,4,3,1,4,1,1,NA,1,NA,NA,NA,NA,NA,NA,NA,NA,NA,NA,2,2,1,3,3,2,1,1,2,3,2,2,3,3,3,3,2,4,2,3,4,2,3,3,4,3,3,4,4,3,5,3,3,4,3,5,4,3,4,3,4,2,2,4,4,5,4,4,4,4,4,4,5,4,6,4,4,5,4,4,2,6,4,6,4,4,4,7,5,5,5,5,4,4,4,4,4,4,4,4,4,4,4,4,3,2,4,3,4,2,4,3,3,3,3,2,4,4,4,2,5,1,4,2,1,3,4,2,3,2,3,4,2,4,4,3,2,2,1,1,1,1,2,4,3,4,1,1,4,3,2,5,4,2,2,2,2,3,3,4,1,1,4,4,3,3,3,3,2,4,3,3,3,4,3,2,5,2,3,1,4,3,5,4,3,3,4,2,4,4,4,4,4,3,2,2,1,1,1
UCSB,1996,2,1,1,7,1.7018,65.90909091,4,1,0,0,2,NA,1,2,35.16666667,36.77777778,35.97222222,34.4329071,-119.8370972,64,6.111111111,NA,5,1,2,1,NA,4,4,5,NA,3,3,8,8,2,3,2,8,1,NA,NA,8,1,NA,2,N/A,N/A,N/A,N/A,N/A,0,0,0,0,0,4,4,3,4,2,4,2,4,4,4,4,3,4,1,2,2,3,2,2,2,1,2,2,1,4,2,2,2,4,2,4,2,2,4,2,4,4,2,2,4,1,2,2,2,2,2,2,2,2,1,5,5,3,2,2,2,1,3,1,5,2,2,2,5,1,1,1,2,2,1,1,1,2,2,2,2,2,1,1,3,5,1,2,4,4,4,4,4,4,2,4,4,5,6,5,5,6,5,5,2,3,1,2,1,1,4,2,2,1,1,2,2,2,2,2,5,7,5,2,2,4,6,2,4,4,4,3,4,3,3,4,4,2,2,4,4,3,2,2,4,4,4,2,2,4,5,5,4,3,3,4,4,1,2,2,3,5,4,4,2,1,5,3,4,4,5,2,4,5,4,4,4,1,4,4,4,4,2,4
Oslo,1996,1,1,1,7,1.76,71,5,2,20,2,2,NA,1,2,35.9,36.1,36,59.91270447,10.74609375,69,-4,09:41:37,4,1,5,1,NA,4,4,5,NA,2,2,6,6,1,NA,2,6,1,NA,NA,4,1,NA,2,Kompiser,Medstudenter,Aktivitetsklubb,0,0,5,3,7,0,0,4,5,5,5,5,5,4,4,4,5,4,4,3,2,2,3,2,2,2,2,3,2,2,2,4,1,2,1,1,1,2,1,1,2,1,4,4,3,2,3,1,1,1,1,1,1,2,3,1,2,2,7,1,2,5,1,1,1,2,1,1,2,1,6,1,2,2,1,2,2,4,1,1,1,2,1,2,2,2,1,2,2,2,5,5,5,5,5,4,3,4,4,5,4,4,5,5,4,4,1,2,1,3,1,1,1,3,1,1,1,2,3,2,5,2,4,5,4,1,2,2,4,1,1,3,3,2,2,2,2,4,4,2,1,3,4,4,4,2,2,5,2,3,4,3,5,4,5,5,4,4,4,1,1,1,3,4,4,5,3,1,4,4,2,4,3,2,3,4,3,3,2,2,4,1,1,3,1,2
Serbia,1996,2,1,1,7,1.74,59,3,1,1,0,2,NA,1,2,36,36,36,44.81860352,20.46809387,53,6,11:21:48,6,1,2,1,NA,4,4,5,NA,7,5,7,7,1,NA,2,8,1,NA,NA,2,1,NA,1,NA,NA,NA,NA,NA,NA,NA,NA,NA,NA,5,4,4,4,4,4,3,3,4,3,2,3,2,2,3,3,2,2,2,3,3,3,2,4,5,1,3,1,4,1,2,1,2,1,1,2,4,4,4,4,4,1,2,1,1,1,4,1,1,1,1,4,2,1,1,1,1,1,1,1,1,1,1,2,1,2,4,8,NA,2,2,1,4,NA,NA,NA,NA,NA,2,7,4,NA,NA,5,5,5,5,5,4,3,5,4,5,4,5,4,4,4,5,4,3,1,3,2,2,5,2,2,3,2,2,3,1,2,2,4,6,5,2,5,5,5,2,2,2,5,4,3,4,2,2,2,2,2,3,2,3,2,4,4,5,4,4,3,4,5,1,1,1,1,3,3,2,3,2,3,3,4,4,4,2,3,3,4,4,2,2,5,4,3,3,4,2,3,4,3,2,4,3
Serbia,1996,2,1,2,7,1.81,80,3,2,2,0,2,NA,1,2,36,36,36,44.81860352,20.46809387,57,-1,11:06:45,6,1,2,1,NA,4,4,5,NA,8,7,8,8,2,1,2,8,3,1,8,5,2,8,2,Udru?enje koje se bavi decom i srednjo?kolcima,NA,NA,NA,NA,5,NA,NA,NA,NA,3,5,4,4,4,5,5,3,3,3,4,4,4,2,2,2,2,2,1,2,2,2,1,3,4,2,2,3,2,1,3,1,1,2,2,4,4,3,4,4,5,3,2,2,1,2,4,1,1,2,1,8,4,3,2,1,2,4,2,2,2,1,2,2,3,2,NA,5,NA,2,2,2,3,NA,NA,NA,3,NA,1,5,4,NA,NA,5,5,4,5,5,4,3,4,5,6,5,6,4,5,5,6,2,3,2,4,1,3,2,3,3,3,2,3,4,2,4,2,3,4,4,2,4,4,4,3,3,2,4,2,3,4,5,2,4,2,4,4,3,2,2,5,4,4,4,4,4,3,3,1,1,1,3,2,3,2,4,2,3,2,4,2,4,3,2,2,5,3,4,3,5,4,3,3,4,2,4,3,2,3,3,4
Oslo,1996,1,2,2,5,1.86,79,5,2,0,1,2,NA,1,2,36,36,36,59.8085022,10.26109314,64,-2,09:49:24,4,1,2,1,NA,4,4,5,NA,4,4,4,3,1,NA,2,8,3,1,8,3,1,NA,2,Idrettslag,Kollokvie,Seminar,NA,NA,10,4,14,NA,NA,2,2,4,4,3,3,4,5,3,4,4,3,2,5,4,4,2,2,2,2,3,4,1,1,4,1,2,2,2,2,3,3,2,2,2,4,4,3,3,4,4,2,1,2,2,3,2,4,2,2,3,2,5,1,2,2,4,6,5,1,4,5,3,6,1,1,4,4,4,3,2,3,4,3,3,2,1,4,2,2,4,1,4,5,5,5,5,5,5,2,4,4,3,4,3,5,4,3,2,1,3,3,3,2,1,2,1,1,1,1,2,1,1,1,1,4,2,2,1,1,3,2,2,3,1,5,5,3,3,4,2,2,2,1,2,1,1,3,4,2,2,3,3,2,3,4,5,3,4,3,3,2,3,2,3,1,4,4,4,2,2,2,3,3,4,2,1,1,4,4,4,4,1,5,4,3,4,4,1
VCU,1996,2,3,1,7,1.6764,79.54545455,3,1,6,0,2,NA,1,2,35.8,36.2,36,37.55220032,-77.45819855,64,10.55555556,10:50:50,5,1,2,1,NA,2,2,5,NA,2,1,8,8,1,NA,2,8,1,NA,NA,3,1,NA,2,Virginia esports association,Marval rpg group,NA,NA,NA,4,5,NA,NA,NA,4,4,1,4,3,3,2,1,2,4,3,4,4,2,3,4,2,2,2,2,3,2,2,3,4,2,4,2,4,1,4,4,4,2,4,4,4,4,4,3,4,4,2,3,3,4,4,3,2,2,2,4,2,2,2,1,4,2,2,4,7,5,3,5,2,2,2,2,1,1,2,1,2,2,2,2,2,2,2,2,2,2,2,5,4,4,5,4,3,4,3,4,5,5,3,4,3,3,2,3,2,1,4,2,1,2,2,2,2,2,3,4,2,3,3,5,7,5,3,6,2,2,4,4,5,4,2,2,4,3,3,5,4,2,4,4,3,4,3,4,2,4,4,5,4,5,4,4,3,3,4,3,2,4,2,2,4,4,3,4,2,2,4,2,3,3,2,3,4,4,4,3,3,2,3,4,3,2,2
METU,1996,2,1,2,6,1.7,63,3,1,NA,NA,1,0.5,1,2,35.8,36.2,36,39.91169739,32.84030151,64,2,09:42:06,3,2,2,1,NA,4,2,5,NA,3,3,6,6,1,NA,2,8,1,NA,NA,1,1,NA,2,biyogen,NA,NA,NA,NA,5,NA,NA,NA,NA,2,4,2,4,4,2,2,2,2,2,3,2,2,4,4,4,3,4,4,4,4,4,4,4,4,4,3,4,4,2,3,4,2,3,4,4,4,4,4,4,4,3,2,2,2,4,4,6,5,6,6,5,5,5,6,6,4,6,4,4,3,6,5,5,3,6,5,6,5,6,4,4,3,2,3,4,4,3,5,6,4,2,3,3,4,4,4,4,5,4,4,4,7,6,6,6,6,6,6,2,4,3,2,4,4,4,4,4,4,4,1,4,2,5,2,4,4,4,2,3,3,4,4,2,4,4,2,2,4,4,2,4,4,2,4,4,4,4,4,2,3,4,5,4,4,4,4,3,3,4,3,2,3,4,3,2,2,2,3,3,2,4,4,2,4,4,4,4,4,4,4,4,4,4,4,2,2,2,4
SMU,1996,1,1,2,3,1.65,67,3,2,2,0,2,NA,1,2,36.05555556,36,36.02777778,1.293106079,103.8558044,71,26,10:16:02,5,1,2,1,NA,4,4,5,NA,3,2,6,2,1,NA,2,8,1,NA,NA,2,1,NA,1,NA,NA,NA,NA,NA,NA,NA,NA,NA,NA,4,3,5,5,4,2,1,4,4,4,4,3,4,2,3,2,2,2,2,2,2,2,2,3,4,2,2,4,4,2,4,4,4,4,2,4,5,2,2,4,4,2,2,2,4,2,4,4,4,4,4,4,4,4,4,4,4,4,4,4,4,4,4,4,4,4,4,2,4,4,4,4,4,4,4,4,4,4,4,4,4,4,4,4,4,4,4,4,2,2,4,3,3,5,4,5,3,4,4,2,2,2,2,2,2,2,2,3,2,2,2,2,2,2,2,3,2,5,1,1,1,1,3,3,4,2,3,4,2,3,2,4,3,3,4,4,4,2,2,4,3,3,2,2,3,1,3,4,4,4,4,4,3,3,2,2,4,4,4,2,2,2,4,4,2,4,2,2,4,3,3,4,4,4,3,4,3,4,3
Kassel,1996,1,1,2,4,1.77,65,3,2,6,0,2,NA,1,2,35.08,37,36.04,51.31669617,9.5,53,12,10:52:15,1,1,3,1,NA,4,4,2,1,5,4,4,3,1,NA,2,5,1,NA,NA,1,1,NA,1,NA,NA,NA,NA,NA,NA,NA,NA,NA,NA,3,2,2,4,2,3,2,2,1,3,2,2,3,4,3,4,3,2,3,3,4,4,3,3,5,4,3,2,3,1,2,2,1,1,2,3,3,3,4,4,2,1,1,2,1,2,2,3,2,2,2,2,5,4,5,3,5,4,2,3,2,3,3,4,2,4,3,3,4,4,2,3,2,6,3,3,3,3,2,6,2,2,2,4,3,4,4,2,1,1,3,3,5,5,5,5,5,4,4,2,4,1,3,2,2,4,2,3,3,1,2,3,2,3,2,3,5,3,4,2,3,4,4,4,2,4,3,2,2,4,4,2,3,2,2,3,2,3,4,2,2,4,4,4,3,4,3,4,2,4,4,3,2,3,2,2,4,3,3,2,2,2,3,3,4,3,5,4,5,4,5,4,2,4,3,2,2,3,2
METU,1996,2,1,2,7,1.67,53,4,2,2,0,2,NA,1,2,35.2,36.9,36.05,39.91169739,32.84030151,64,2,09:42:07,3,2,2,1,NA,4,4,5,NA,4,2,3,3,1,NA,2,8,1,NA,NA,5,1,NA,2,odt¨¹ hokey,NA,NA,NA,NA,6,NA,NA,NA,NA,3,4,3,3,3,4,2,2,2,3,4,2,3,4,3,3,3,2,3,4,4,3,2,4,4,2,3,2,3,2,4,1,3,1,1,2,4,4,4,4,3,2,2,2,2,3,4,5,5,3,6,6,5,5,6,5,2,5,5,6,5,2,5,2,3,2,2,3,4,3,3,5,5,4,2,2,2,2,5,5,3,2,2,5,5,4,4,4,4,3,3,3,2,5,5,5,6,4,4,2,4,2,3,2,3,3,3,3,3,2,1,2,2,2,2,5,3,3,1,2,4,2,4,2,3,4,3,3,4,4,3,3,4,2,4,4,3,4,4,2,3,4,4,3,4,4,4,4,4,3,4,4,2,3,2,2,2,3,2,4,4,3,3,4,3,2,2,3,4,3,3,4,4,3,4,4,3,4,4
SMU,1996,1,1,2,5,1.91,88,3,2,1,0,2,NA,2,2,36,36.1,36.05,1.293106079,103.8558044,70,27,10:56:53,5,1,2,1,NA,4,4,5,NA,3,3,4,2,1,NA,2,8,1,NA,NA,1,1,NA,1,NA,NA,NA,NA,NA,NA,NA,NA,NA,NA,2,3,4,4,3,4,4,3,1,4,5,4,3,3,3,3,3,3,3,3,3,3,3,3,3,3,3,3,2,2,2,3,2,2,3,2,4,3,3,3,3,2,1,3,3,3,3,4,4,4,4,4,4,4,4,4,4,4,4,4,4,4,4,4,4,4,4,4,4,4,4,4,4,4,4,4,4,4,4,4,4,4,4,4,4,4,4,3,3,2,3,3,3,3,2,1,2,5,4,3,3,3,3,3,3,3,3,3,3,3,3,3,3,3,3,4,5,4,3,3,3,3,3,4,4,4,3,2,2,2,2,2,2,2,2,2,3,3,3,4,3,4,3,5,3,5,5,5,5,3,3,3,3,3,3,2,2,2,3,3,3,3,3,3,3,3,3,4,4,4,4,4,4,4,4,3,3,3,3
Serbia,1996,2,1,2,1,1.7,54,3,2,2,2,2,NA,1,2,35.5,36.6,36.05,44.81860352,20.46809387,70,1,11:31:20,6,1,2,1,NA,4,4,5,NA,4,3,6,6,2,2,2,4,1,NA,NA,5,1,NA,1,NA,NA,NA,NA,NA,NA,NA,NA,NA,NA,5,5,2,5,3,3,5,5,2,4,2,4,5,3,3,4,1,2,1,1,5,2,1,4,4,1,3,2,2,3,3,3,2,3,2,2,3,4,4,4,5,4,2,3,2,4,5,2,2,2,8,5,7,4,8,7,1,NA,3,5,1,1,4,1,2,8,NA,8,5,2,8,2,NA,NA,NA,1,NA,NA,1,6,7,7,1,5,5,5,5,5,5,2,4,4,7,2,3,3,6,6,7,5,5,2,4,2,2,4,4,5,4,4,2,5,1,1,1,3,4,7,1,3,4,7,3,3,1,4,1,4,3,5,2,4,3,4,4,3,2,3,5,5,5,4,4,4,4,5,1,1,1,4,4,3,3,2,1,2,3,4,2,2,2,1,3,3,4,4,1,4,5,5,5,5,1,5,4,4,4,4,4
METU,1996,2,1,1,6,1.7,58,4,2,0,0,2,NA,1,2,35.9,36.2,36.05,39.91169739,32.84030151,64,2,11:32:15,3,2,2,1,NA,4,2,4,1,4,2,6,6,1,NA,2,4,1,NA,NA,1,1,NA,2,BEST,NA,NA,NA,NA,20,NA,NA,NA,NA,3,4,1,3,2,4,3,2,1,2,3,3,4,3,3,3,2,2,2,2,3,3,2,4,4,4,2,3,4,4,4,3,4,4,2,4,4,4,3,4,4,2,2,3,3,4,2,4,4,6,5,5,4,2,6,3,4,4,2,2,2,3,5,4,2,6,6,6,2,6,3,5,3,2,5,5,5,3,3,5,6,2,4,4,4,3,2,4,3,2,3,2,4,5,6,4,4,4,5,4,4,3,4,4,2,4,4,4,4,2,2,4,3,4,3,3,3,3,3,2,3,1,2,2,3,4,2,3,4,3,3,4,4,2,4,4,4,3,4,5,2,4,3,4,3,3,4,3,3,2,3,3,2,2,4,3,2,2,2,3,4,3,4,4,4,3,2,4,2,4,3,4,4,2,3,4,3,2,4
Serbia,1996,2,1,1,7,1.56,60,4,2,4,0,2,NA,1,2,36.1,36.1,36.1,44.81860352,20.46809387,65,8,11:01:57,6,1,2,1,NA,4,4,4,1,2,1,5,5,1,NA,2,5,1,NA,NA,1,1,NA,1,NA,NA,NA,NA,NA,NA,NA,NA,NA,NA,5,2,4,3,4,4,4,4,5,3,3,4,4,3,3,5,2,2,2,3,3,2,3,4,5,1,3,1,1,1,1,3,1,1,4,1,1,2,4,1,1,1,1,1,1,1,1,4,4,2,3,8,5,1,8,6,2,6,2,2,4,2,1,8,2,2,NA,7,1,2,2,2,3,NA,3,NA,3,NA,3,6,6,NA,3,4,5,5,5,5,5,4,5,5,7,5,6,4,5,6,6,3,2,1,4,2,4,4,2,3,4,4,2,1,1,4,2,3,6,1,1,2,2,6,1,1,2,5,1,4,1,1,5,5,2,5,2,2,4,5,4,3,4,5,5,4,2,4,1,2,4,2,5,1,2,5,1,4,3,2,2,4,3,2,2,5,2,1,1,2,5,2,2,3,2,5,4,4,3,2,4
Bamberg,1996,2,1,2,6,1.73,66,2,2,0,0,2,NA,1,2,35.9,36.3,36.1,49.88830566,10.91850281,90,-1,11:13:42,1,1,3,1,NA,4,1,5,NA,5,1,6,4,1,NA,2,6,1,NA,NA,1,1,NA,1,NA,NA,NA,NA,NA,NA,NA,NA,NA,NA,3,3,2,5,4,4,1,1,3,3,2,2,5,3,2,5,4,3,3,2,4,4,3,3,5,2,3,4,4,3,3,3,2,4,3,2,4,4,2,4,2,1,2,2,4,1,2,4,3,3,4,2,5,3,4,3,3,5,4,3,2,4,4,4,1,2,2,7,2,6,1,1,4,5,2,2,5,3,2,6,7,3,3,5,4,4,3,2,3,2,4,2,3,6,4,6,2,4,2,2,3,1,2,5,2,4,1,1,2,2,1,1,2,1,1,5,5,4,2,3,2,4,5,5,4,4,1,3,3,2,4,5,4,1,5,4,3,3,1,4,2,4,5,3,5,5,5,3,3,2,4,2,2,2,2,2,1,5,1,4,3,3,2,5,2,2,3,3,3,2,3,3,2,1,5,3,3,5,4
Kassel,1996,2,1,2,7,1.7,58,4,2,2,24,2,NA,1,2,35.8,36.4,36.1,51.28779602,9.470504761,77,5,09:26:24,1,1,2,1,NA,4,4,5,NA,8,8,8,7,2,1,2,6,1,NA,NA,3,1,NA,2,Karnevalsverein,NA,NA,NA,NA,6,NA,NA,NA,NA,4,4,4,4,4,4,5,5,4,5,5,3,4,1,3,3,3,2,2,2,2,2,1,4,4,1,2,4,4,3,4,2,1,2,3,5,5,4,4,4,4,2,2,2,1,1,4,4,4,4,2,4,4,4,5,3,5,4,2,4,2,2,5,2,2,3,2,5,3,3,2,2,2,2,2,4,3,3,3,5,6,3,5,4,5,4,5,4,2,4,4,4,6,6,6,7,5,5,6,2,2,1,2,1,2,4,2,2,2,2,1,2,1,3,2,4,6,5,4,3,2,3,1,1,3,4,2,2,1,1,4,5,3,1,1,3,3,1,3,4,2,4,4,2,3,4,2,4,3,2,4,3,1,2,1,3,1,3,4,2,2,4,2,4,2,1,4,2,5,2,1,3,3,2,2,2,3,4,2
Kassel,1996,2,1,2,5,1.67,64,3,2,3,0,2,NA,1,2,36,36.2,36.1,53.36669922,11.66670227,91,0,09:42:53,1,1,2,1,NA,4,4,5,NA,4,1,8,6,1,NA,2,6,1,NA,NA,3,1,NA,1,NA,NA,NA,NA,NA,NA,NA,NA,NA,NA,2,1,3,4,2,3,1,2,2,2,3,2,4,4,3,4,2,2,3,3,4,3,3,3,4,2,3,4,4,2,4,4,2,3,3,3,4,4,2,3,2,2,2,2,2,3,3,6,5,5,6,5,4,3,5,5,4,3,2,3,2,2,5,6,2,4,4,6,2,4,2,2,3,4,6,3,5,5,2,6,6,3,5,4,4,4,4,4,4,4,4,4,6,5,5,4,6,5,5,4,5,3,4,4,3,4,4,4,4,2,3,3,2,4,2,2,5,5,3,2,3,4,2,3,3,4,3,4,2,2,3,3,4,3,2,4,4,2,2,3,2,5,4,3,4,4,4,3,2,3,4,3,2,2,3,3,3,4,2,3,1,2,2,3,2,2,2,4,4,4,4,4,3,4,3,3,4,2,4
Serbia,1996,2,1,1,7,1.68,61,4,2,1,0,2,NA,1,2,35.9,36.3,36.1,44,21,61,1,10:22:58,6,1,2,1,NA,4,4,4,4,6,3,5,5,1,NA,2,8,1,NA,NA,2,1,NA,1,NA,NA,NA,NA,NA,NA,NA,NA,NA,NA,3,3,3,5,5,4,3,3,4,4,4,5,2,3,4,3,4,3,3,3,4,3,4,4,3,2,4,3,3,3,3,4,2,4,5,4,4,4,4,4,5,3,3,3,3,3,4,1,1,1,2,4,1,1,1,1,1,1,1,1,1,2,1,5,1,1,NA,3,1,2,1,1,NA,1,1,1,NA,NA,1,5,4,1,1,5,5,5,5,5,5,5,5,5,4,4,5,4,5,5,5,4,2,1,4,4,1,4,2,2,4,4,2,3,3,3,2,4,4,5,1,3,4,5,4,4,4,3,2,2,4,4,2,5,4,4,3,3,5,5,4,5,5,5,5,3,5,5,1,1,4,4,5,2,4,1,1,2,5,4,4,2,1,4,2,4,3,4,2,4,4,5,3,4,1,3,5,3,3,2,5
Poland,1996,2,1,1,7,1.58,54,3,2,12,2,2,NA,1,2,36.1,36.1,36.1,54.36079407,18.65829468,85,0,11:33:50,9,1,1,1,NA,4,2,4,2,8,5,2,2,2,8,2,8,2,1,1,2,1,NA,1,NA,NA,NA,NA,NA,NA,NA,NA,NA,NA,3,3,3,2,5,5,1,2,1,2,3,5,5,2,4,2,4,4,4,4,2,4,3,2,5,4,4,4,5,2,4,2,4,3,4,4,5,4,4,4,4,3,2,2,2,2,4,5,5,1,2,3,7,6,4,3,1,2,1,2,4,3,7,6,1,1,6,6,2,1,2,6,3,3,1,1,3,1,5,5,3,2,3,5,5,4,4,5,5,5,5,5,5,3,5,3,3,2,6,5,5,3,5,3,4,4,2,5,4,5,2,2,1,4,2,3,3,5,5,4,6,1,2,2,1,4,3,2,2,3,5,2,4,1,1,4,2,1,2,2,2,4,3,2,4,4,4,4,5,2,4,5,1,1,2,1,1,4,2,4,2,3,4,4,5,4,3,1,4,5,5,4,2,4,5,4,4,5,4
Oxford,1996,2,1,2,6,1.6764,65,3,2,2,0,1,1,1,2,35.9,36.3,36.1,51.75,-1.25,89,-1.666666667,08:25:57,5,1,2,1,NA,4,4,5,NA,6,3,8,8,1,NA,2,8,1,NA,NA,3,1,NA,1,NA,NA,NA,NA,NA,NA,NA,NA,NA,NA,2,3,4,5,1,2,1,2,4,3,2,5,3,3,4,5,4,3,1,3,4,3,3,2,4,2,4,4,4,2,4,5,4,5,5,5,5,4,5,4,3,3,4,3,3,4,5,5,6,6,5,4,3,5,7,3,3,6,4,4,2,1,4,7,4,5,7,5,5,6,5,6,7,7,4,4,5,3,6,5,6,5,4,4,5,3,3,4,2,2,3,3,7,4,5,5,5,5,4,3,3,1,2,4,1,2,4,4,1,4,1,2,3,5,4,4,5,1,3,2,3,2,1,4,4,4,1,3,3,2,4,5,5,1,5,5,4,4,4,4,2,1,4,3,4,2,2,3,4,5,3,3,3,4,3,2,4,4,4,1,4,4,4,4,3,2,2,3,4,2,2,4,5,4,2,4,4,2,2
VCU,1996,1,1,2,2,1.7526,83.63636364,3,2,3,3,1,0,2,2,35.55555556,36.66666667,36.11111111,37.55380249,-77.46029663,68,8.888888889,20:01:40,5,1,2,1,NA,4,1,5,NA,3,1,1,1,1,NA,1,NA,1,NA,NA,1,1,NA,1,NA,NA,NA,NA,NA,NA,NA,NA,NA,NA,3,3,3,3,3,3,3,3,3,3,3,3,3,3,3,3,3,3,3,3,3,3,3,3,3,3,3,4,3,4,2,1,3,3,1,2,2,1,2,2,3,3,1,2,1,3,3,4,4,4,4,4,4,4,4,4,4,4,4,4,4,4,4,4,4,4,4,4,4,4,4,4,4,4,4,4,4,4,4,4,4,4,4,3,4,4,3,2,2,3,4,4,4,4,4,3,6,5,1,2,2,3,5,3,2,3,5,3,3,2,2,1,2,2,4,1,1,4,1,1,1,1,3,3,2,1,1,3,2,3,3,3,2,2,3,2,1,4,3,3,3,3,2,3,4,4,3,3,4,3,3,4,1,1,3,2,3,4,2,3,1,2,2,4,5,4,5,2,4,3,2,3,3,4,1,2,2,3,4
UCSB,1996,2,1,2,1,1.6764,90.90909091,3,1,14,0,2,NA,1,2,35.61111111,36.61111111,36.11111111,34.4329071,-119.8370972,63,6.666666667,19:16:00,5,1,2,1,NA,4,4,5,NA,3,1,2,2,1,NA,2,2,1,NA,NA,1,1,NA,1,NA,NA,NA,NA,NA,NA,NA,NA,NA,NA,3,4,1,1,2,2,1,3,1,1,1,2,5,2,4,4,4,4,2,4,3,4,4,5,4,1,5,2,4,2,4,2,1,2,4,2,5,2,4,4,3,1,2,1,2,2,3,1,1,1,1,1,1,1,1,1,1,1,1,1,1,1,1,1,1,1,7,7,7,7,1,1,7,7,7,7,7,7,1,7,7,7,2,4,5,2,4,5,4,3,4,3,1,4,2,2,2,2,2,3,3,3,5,1,1,4,1,5,3,1,2,1,5,5,5,2,2,1,1,2,1,2,4,5,5,1,1,1,5,4,2,5,5,1,5,5,3,5,2,5,2,1,4,4,2,2,2,4,4,1,1,1,2,2,1,1,1,5,4,3,4,4,5,1,2,1,4,3,3,1,1,1,5,4,1,1,1,1,4
METU,1996,1,1,1,6,1.8,74,2,2,4,0,1,7,1,2,36.2,36.1,36.15,39.91169739,32.84030151,52,3,11:41:53,3,2,2,1,NA,4,4,4,1,4,3,8,7,1,NA,2,8,1,NA,NA,1,2,6,2,AEGEE,BKFT,C?SST,NA,NA,25,4,3,NA,NA,3,1,1,2,1,4,3,1,1,3,2,1,1,4,3,2,4,2,2,4,4,4,2,4,5,5,3,1,1,2,1,2,1,1,1,3,5,2,4,3,4,1,1,1,1,1,2,6,1,1,4,5,6,3,2,3,2,6,1,3,2,1,1,7,1,2,1,1,1,1,1,1,1,1,1,1,1,1,1,1,1,2,1,3,3,3,5,4,1,1,2,1,3,2,3,3,3,2,2,2,2,3,3,4,4,4,3,2,4,2,1,2,1,1,1,4,5,3,2,3,4,4,4,2,4,5,1,2,3,5,2,5,5,2,4,5,4,4,2,5,4,4,5,5,3,4,5,4,2,3,4,4,2,4,2,2,2,5,3,4,3,3,2,5,4,5,3,3,4,5,5,5,2,5,2,5,2,4,2
Serbia,1996,2,1,1,7,1.69,54,4,3,4,0,2,NA,1,2,36.3,36,36.15,44.81860352,20.46809387,45,12,23:25:11,6,1,2,1,NA,4,4,5,NA,2,2,3,3,2,6,2,8,1,NA,NA,6,1,NA,1,NA,NA,NA,NA,NA,NA,NA,NA,NA,NA,3,3,3,4,3,3,2,3,1,3,2,1,3,4,4,5,3,2,3,3,4,3,3,4,5,2,4,2,2,2,2,3,2,2,2,2,4,3,3,3,3,2,2,2,2,3,3,5,4,2,5,8,2,8,4,5,4,3,4,2,4,2,8,5,2,4,NA,2,NA,2,2,2,NA,NA,NA,NA,3,NA,2,6,6,NA,NA,3,3,4,3,3,3,3,3,3,6,4,4,4,4,3,3,4,4,4,4,3,3,4,4,2,3,4,2,2,2,3,2,5,7,6,4,6,8,7,2,4,2,4,1,2,2,2,2,4,4,3,3,3,1,3,4,5,4,4,3,3,4,3,1,3,1,3,4,4,2,3,2,2,3,4,4,3,2,3,3,4,3,4,2,4,5,4,4,4,3,5,2,4,3,3,3
Oslo,1996,2,1,2,5,1.74,65,2,1,NA,NA,2,NA,1,2,35.9,36.4,36.15,59.93209839,10.96080017,63,-4,10:18:21,4,1,2,1,NA,4,4,5,NA,2,2,7,5,1,NA,2,7,3,1,8,1,1,NA,1,NA,NA,NA,NA,NA,NA,NA,NA,NA,NA,2,2,2,2,2,4,1,2,3,2,2,2,3,4,4,4,2,3,4,3,4,4,3,4,5,3,4,2,2,2,2,3,1,2,2,4,3,3,3,2,2,2,3,3,2,3,3,6,6,5,7,6,6,2,6,6,4,2,5,6,6,6,5,7,4,3,3,5,3,3,5,3,5,5,4,4,4,4,3,4,4,3,4,4,3,4,4,5,5,3,5,5,6,6,6,6,5,5,5,4,4,2,3,3,4,4,4,2,4,4,2,2,2,3,2,3,3,3,1,1,2,1,1,4,2,4,2,4,2,3,4,4,4,1,2,4,4,3,4,4,2,3,4,4,4,4,4,3,3,3,3,4,2,3,2,3,2,5,4,2,3,2,3,3,4,2,2,3,4,3,3,3,2,2,3,2,3,2,3
Oslo,1996,2,1,2,7,1.67,57,4,1,0,0,2,NA,1,2,36,36.3,36.15,59.91670227,10.75,87,1,09:44:22,4,1,2,1,NA,2,2,5,NA,6,2,8,7,1,NA,2,8,1,NA,NA,6,2,1,2,Kollektivet,Seminar,Seminar,Seminar,Dans,5,6,4,3,5,3,3,4,3,2,4,3,4,2,4,4,4,5,2,3,2,2,1,1,2,2,3,1,3,5,1,2,2,2,3,2,2,2,2,3,3,4,4,4,4,4,2,2,2,2,1,4,6,4,2,7,6,5,4,5,5,2,5,5,4,6,3,5,5,1,6,1,5,2,1,1,3,2,2,1,1,2,1,3,2,2,1,3,4,5,4,5,4,3,3,4,3,5,4,5,5,5,5,5,2,3,2,1,2,2,2,2,1,2,2,1,2,1,1,1,5,8,7,7,5,6,5,1,2,2,4,3,5,3,2,5,2,3,1,3,3,4,2,4,4,4,4,4,4,5,5,5,5,3,5,4,4,1,1,1,4,5,5,5,3,2,3,2,5,3,4,1,4,3,5,5,5,1,4,5,4,5,1,4
METU,1996,1,1,1,5,1.78,73,4,1,11,0,2,NA,1,2,36,36.3,36.15,39.91169739,32.84030151,58,7,11:14:03,3,2,2,1,NA,4,4,4,4,5,5,8,8,1,NA,2,8,1,NA,NA,1,1,NA,2,hokey tak?m?,capueira toplulu?u,NA,NA,NA,7,7,NA,NA,NA,1,4,4,3,3,3,3,3,3,4,4,4,3,2,3,3,2,2,2,2,2,2,3,3,4,2,2,1,2,1,4,4,5,4,1,4,5,3,5,2,5,2,2,1,2,3,5,6,4,7,7,6,7,7,5,3,6,3,7,5,4,5,7,2,2,6,3,2,3,6,6,3,4,3,3,3,6,5,4,3,3,2,5,3,4,3,5,5,3,3,4,4,7,5,5,5,6,6,5,3,3,3,3,5,4,4,2,2,5,2,2,4,2,4,2,4,5,7,1,2,3,4,4,2,4,4,2,4,5,5,4,5,4,4,4,5,5,4,1,5,4,4,5,4,5,4,4,3,4,4,4,5,3,2,3,2,4,4,3,5,3,2,2,4,3,3,1,4,2,4,4,5,2,3,4,5,3,1,4
METU,1996,1,1,1,6,1.82,80,4,2,1,0,2,NA,1,2,36.2,36.1,36.15,39.91169739,32.84030151,60,9,09:45:57,3,2,2,1,NA,4,4,4,1,2,1,3,3,1,NA,2,6,1,NA,NA,1,1,NA,1,NA,NA,NA,NA,NA,NA,NA,NA,NA,NA,4,2,2,3,2,3,2,4,2,2,2,2,4,3,4,4,3,3,3,3,3,3,4,3,4,4,3,4,4,2,3,4,4,2,3,3,4,4,4,4,4,2,1,1,2,2,4,6,5,3,6,5,5,4,5,6,6,3,2,6,2,6,5,5,2,4,2,2,3,6,2,2,2,2,2,2,2,2,3,3,3,2,3,4,3,4,3,3,3,3,3,3,4,5,5,5,4,4,4,4,4,4,4,4,3,4,3,2,4,2,2,3,2,3,2,5,7,5,2,3,3,4,4,1,5,3,1,2,4,4,1,5,4,4,5,4,2,5,2,4,2,4,4,4,3,4,4,4,2,3,4,3,3,3,4,2,4,2,4,3,2,3,3,4,3,4,2,4,4,4,4,4,3,4,3,4,2,3,4
Poland,1996,2,1,1,7,1.68,56,4,2,18,2,2,NA,1,2,36.1,36.2,36.15,50.13330078,18.98330688,65,NA,10:51:06,9,1,2,1,NA,4,4,4,4,3,3,4,3,2,1,2,8,2,1,1,1,1,NA,1,NA,NA,NA,NA,NA,NA,NA,NA,NA,NA,3,3,4,4,2,5,3,2,2,3,4,4,4,3,3,3,3,4,3,3,2,4,4,3,5,4,2,4,4,4,4,4,3,3,3,4,4,4,4,4,4,2,3,1,2,2,4,1,1,1,4,4,6,4,1,2,1,7,2,3,3,2,7,5,1,2,1,3,1,2,1,2,1,1,1,3,2,1,2,3,3,1,2,3,2,2,4,3,1,1,2,2,6,3,4,3,4,4,5,2,2,2,2,3,2,3,3,2,2,2,2,2,1,2,2,4,5,7,6,6,4,2,1,4,2,5,4,4,3,4,3,3,2,2,1,4,3,2,2,2,3,4,4,3,5,5,4,5,1,3,4,1,5,5,1,2,3,4,3,2,2,2,3,4,4,3,3,3,5,4,4,4,4,4,3,4,4,2,4
Oxford,1996,2,1,2,1,1.524,59.09090909,4,1,NA,NA,2,NA,1,2,36,36.3,36.15,51.75,-1.25,89,-1.666666667,08:32:08,5,1,2,1,NA,4,4,5,NA,3,2,8,8,1,NA,2,8,1,NA,NA,6,1,NA,2,University Friends,Business Social,Lecturers/ Advisors,Friends from home,Neighbors,20,15,5,9,6,2,2,4,2,2,1,3,2,2,4,5,3,1,1,2,1,2,2,2,1,1,2,1,2,4,2,1,3,4,5,4,1,3,5,5,4,4,4,2,2,3,2,2,2,4,2,4,2,1,4,1,4,1,2,7,1,4,2,1,2,1,1,2,6,4,7,1,6,7,7,7,7,7,7,6,6,7,7,7,6,7,7,7,5,2,4,5,2,1,5,1,3,6,7,5,5,6,6,5,1,1,1,1,4,1,2,1,4,2,1,2,4,3,5,5,2,2,2,2,2,2,2,2,4,2,4,2,5,4,5,5,4,1,2,1,1,5,1,5,1,4,2,3,2,5,2,4,4,1,5,2,2,2,5,3,1,2,4,2,4,5,2,2,4,2,1,1,1,4,1,1,3,5,5,1,4,3,2,4
Poland,1996,2,1,2,7,1.56,50,3,2,0,1,1,NA,1,2,36.2,36.1,36.15,54.36079407,18.65829468,65,1,09:40:36,9,1,2,1,NA,4,4,4,4,5,5,6,6,1,NA,2,8,2,1,1,1,1,NA,1,NA,NA,NA,NA,NA,NA,NA,NA,NA,NA,4,2,5,4,3,5,2,3,3,3,5,3,3,2,3,4,4,3,3,3,2,4,4,4,4,5,4,4,4,4,4,4,4,3,3,5,5,4,4,5,5,3,3,3,5,3,4,6,6,6,6,6,6,5,3,6,5,2,6,6,5,6,6,5,3,4,2,6,2,4,3,3,2,2,2,2,2,2,4,5,6,2,2,4,4,4,3,5,4,3,5,5,7,6,6,6,7,7,6,2,2,2,2,3,4,2,2,1,2,2,4,2,1,1,2,5,7,7,7,6,8,8,1,3,1,4,4,5,2,3,4,4,2,1,1,3,1,2,5,4,4,4,4,4,4,3,3,4,4,4,4,4,2,3,2,2,3,4,2,4,2,3,4,4,3,2,1,2,5,4,4,4,2,4,4,4,4,5,3
Serbia,1996,2,1,2,7,1.74,59,3,2,2,0,2,NA,1,2,35.9,36.5,36.2,44.81860352,20.46809387,55,-2,11:35:41,6,1,2,1,NA,4,4,5,NA,2,2,4,3,1,NA,1,NA,1,NA,NA,3,1,NA,1,NA,NA,NA,NA,NA,NA,NA,NA,NA,NA,4,2,2,4,4,5,2,2,3,2,3,3,3,4,4,3,3,3,3,3,3,4,3,4,4,2,3,2,2,2,2,3,2,2,4,4,4,4,4,4,4,3,2,2,2,3,4,4,2,2,5,4,5,1,5,3,3,3,4,3,2,5,4,4,4,8,4,8,5,4,5,5,5,5,3,4,6,5,3,7,6,4,4,3,3,4,3,3,3,3,2,4,6,6,5,2,7,4,5,4,4,1,4,2,3,4,4,2,3,2,2,3,2,3,2,3,3,4,2,2,4,4,2,1,1,4,3,5,3,2,5,4,2,3,2,3,4,2,4,4,4,4,3,4,2,3,2,2,3,2,2,4,2,4,2,3,4,4,4,2,2,3,3,2,4,2,2,4,4,3,2,4,4,4,3,4,3,4,2
Serbia,1996,2,1,2,7,1.69,47.5,4,2,0,0,2,NA,1,2,36.2,36.2,36.2,44.81860352,20.46809387,40,14,11:16:08,6,1,2,1,NA,4,2,5,NA,2,2,6,6,1,NA,2,8,1,NA,NA,2,1,NA,1,NA,NA,NA,NA,NA,NA,NA,NA,NA,NA,3,3,2,4,3,3,2,2,3,2,2,2,3,3,3,4,3,3,4,3,4,3,3,4,4,3,4,3,3,2,3,4,2,2,3,3,4,2,4,4,3,2,2,3,2,2,3,2,2,2,2,2,4,4,2,NA,4,NA,2,2,2,5,4,5,3,2,NA,4,NA,2,2,2,4,NA,3,NA,6,3,2,6,6,3,5,3,3,3,4,4,2,2,2,2,6,5,5,5,6,6,6,4,4,2,4,4,3,4,3,4,3,4,2,2,2,2,2,1,3,5,1,3,3,3,2,2,2,4,4,4,4,3,3,1,3,2,2,3,4,3,3,4,4,4,3,3,3,3,2,2,2,2,2,3,2,4,3,2,4,4,4,3,2,3,4,3,4,3,2,4,4,3,3,3,4,4,3,5,3,3,2
METU,1996,1,1,1,4,1.7,70,4,2,22,0,1,5,1,2,36.2,36.2,36.2,39.91169739,32.84030151,72,8,10:58:39,3,2,2,1,NA,4,4,5,NA,8,5,8,8,1,NA,2,8,1,NA,NA,1,1,NA,1,NA,NA,NA,NA,NA,NA,NA,NA,NA,NA,3,3,3,3,2,5,4,2,2,4,3,2,4,1,2,2,3,3,2,2,2,2,2,3,3,2,1,3,3,4,4,2,2,2,1,4,4,4,4,4,4,4,3,3,2,4,4,2,1,1,2,4,2,2,2,2,1,3,2,2,2,2,5,3,1,1,2,2,2,2,2,3,2,2,2,3,2,2,3,2,2,3,2,5,5,5,5,5,5,4,3,3,6,5,5,5,5,4,4,2,2,1,2,3,2,3,2,3,2,2,3,3,4,3,2,3,3,3,1,2,4,4,2,2,3,5,4,3,2,2,2,4,4,1,2,3,2,3,4,4,4,4,3,4,3,4,4,4,4,3,4,4,2,2,1,1,4,4,4,3,2,4,3,4,4,4,2,4,2,4,3,4,3,3,4,3,3,3,4
Serbia,1996,2,1,2,6,1.64,56,3,2,0,0,2,NA,1,2,36.2,36.2,36.2,44.81860352,20.46809387,65,8,11:37:19,6,1,2,1,NA,4,4,5,NA,6,4,7,6,1,NA,2,8,1,NA,NA,2,2,5,2,studentska organizacija,NA,NA,NA,NA,2,NA,NA,NA,NA,5,3,3,4,4,4,2,2,4,4,4,4,4,3,4,4,3,3,2,3,4,3,3,4,4,2,4,4,2,3,4,3,3,2,2,4,4,4,3,4,2,2,2,2,2,2,3,4,4,3,5,8,8,2,5,4,4,4,5,4,2,5,5,2,2,4,3,8,3,3,4,3,4,3,3,3,3,3,2,3,6,6,3,4,4,3,4,4,4,4,4,3,6,5,5,5,5,5,5,4,3,2,3,4,2,3,2,2,4,3,2,3,2,2,2,4,5,4,1,4,2,4,2,4,3,3,1,4,3,2,4,4,2,2,4,3,3,2,4,4,3,3,3,3,4,4,2,2,1,3,3,3,2,3,3,4,4,4,4,3,2,2,3,4,3,2,1,4,4,2,3,2,4,4,2,2,3,3,2
Serbia,1996,2,1,2,7,1.68,45,3,1,0,0,2,NA,1,2,36.3,36.1,36.2,44.81860352,20.46809387,65,8,11:48:48,6,1,2,1,NA,4,2,5,NA,2,2,5,5,1,NA,2,8,1,NA,NA,1,1,NA,1,NA,NA,NA,NA,NA,NA,NA,NA,NA,NA,3,4,4,5,4,2,3,3,4,3,3,5,4,4,3,4,3,3,3,3,4,3,3,2,4,2,3,4,4,3,4,2,3,4,2,4,3,4,3,4,3,4,4,4,2,4,3,3,3,4,2,2,5,2,3,4,2,6,2,4,4,2,4,8,2,4,NA,4,NA,3,2,2,4,NA,3,NA,NA,NA,2,4,4,3,4,5,5,5,5,5,5,5,5,5,7,4,5,5,6,6,6,2,1,1,3,3,1,1,2,3,1,2,2,2,2,2,2,4,6,5,2,3,3,4,3,3,2,2,3,3,3,3,4,4,4,4,3,2,3,3,3,4,4,4,4,3,3,4,2,2,2,3,4,4,2,4,2,3,3,3,4,2,2,2,2,2,3,2,2,4,4,4,3,4,1,4,4,3,3,3,2
METU,1996,2,1,1,6,1.63,49,4,2,0,0,1,2,1,2,36,36.4,36.2,39.91169739,32.84030151,64,6,10:57:45,3,2,1,1,NA,4,2,4,1,3,1,2,1,1,NA,2,4,1,NA,NA,1,1,NA,1,NA,NA,NA,NA,NA,NA,NA,NA,NA,NA,5,4,2,2,1,4,1,5,1,1,4,2,5,3,3,4,2,3,2,3,1,3,2,4,4,4,4,4,5,2,4,4,3,4,2,4,3,4,4,4,3,1,1,1,1,3,2,6,7,6,6,6,7,6,5,7,5,7,1,1,2,3,7,5,3,5,2,5,2,2,2,2,3,1,2,2,2,2,2,5,3,1,3,5,4,5,4,4,4,4,5,5,3,6,6,6,5,4,4,2,5,4,2,4,4,4,5,5,3,2,1,1,3,2,1,5,8,5,3,5,3,3,4,1,5,4,1,4,4,5,3,5,5,2,5,5,3,5,4,1,2,3,3,4,3,2,2,5,4,3,5,5,1,1,1,1,5,5,4,3,1,3,5,4,4,4,2,2,2,5,2,2,2,5,4,2,2,1,5
Serbia,1996,2,1,2,7,1.68,60,4,2,10,0,2,NA,1,2,36.2,36.2,36.2,43.58000183,21.33389282,61,1,10:22:11,6,1,2,1,NA,4,4,5,NA,4,3,8,8,1,NA,2,8,1,NA,NA,1,1,NA,1,NA,NA,NA,NA,NA,NA,NA,NA,NA,NA,4,2,1,4,3,3,2,3,2,2,3,3,4,2,4,4,3,3,2,3,3,3,3,4,4,2,4,4,4,4,4,5,4,4,5,5,5,4,4,3,4,2,4,4,1,2,5,3,4,2,5,8,5,3,8,NA,2,5,2,3,2,5,3,8,2,2,NA,8,NA,2,2,2,6,4,NA,NA,3,NA,2,6,6,3,3,5,5,5,5,5,5,5,5,5,5,5,5,5,5,5,5,4,4,2,4,4,2,4,4,4,3,4,2,2,2,2,2,5,6,3,2,4,4,4,2,4,2,4,2,4,2,2,4,5,4,4,2,3,4,3,4,4,4,4,4,2,4,4,2,1,2,3,4,4,2,3,2,4,4,4,5,1,2,4,3,4,4,2,2,5,5,4,4,4,2,4,4,4,4,1,2
Kassel,1996,2,1,1,7,1.72,58,4,2,0,0,2,NA,1,2,36,36.5,36.25,51.28779602,9.470504761,71,4,10:00:43,1,1,2,1,NA,4,1,4,1,2,2,5,3,1,NA,2,8,1,NA,NA,1,1,NA,1,NA,NA,NA,NA,NA,NA,NA,NA,NA,NA,4,5,5,4,4,5,5,4,4,5,5,4,5,2,2,2,2,1,3,1,1,1,1,2,4,1,1,2,4,1,1,1,1,1,4,1,1,1,1,1,1,1,1,1,1,1,1,4,4,2,2,2,2,2,2,2,6,6,3,5,4,4,2,5,1,5,3,6,4,5,4,5,3,5,2,1,2,3,3,6,6,4,3,3,1,4,2,1,3,2,2,2,3,1,2,1,1,1,2,1,2,1,2,1,1,1,3,2,2,1,2,2,2,3,2,4,4,4,2,2,1,2,3,5,3,3,1,3,4,4,2,5,4,5,3,4,4,3,4,4,2,4,4,5,5,4,5,4,2,2,2,2,2,4,2,1,1,5,2,5,4,1,1,1,2,1,4,2,5,2,2,2,2,2,2,4,4,1,3
Oxford,1996,1,1,2,7,1.8288,80,3,1,12,0,2,NA,1,2,36.1,36.4,36.25,51.75,-1.25,86,0,08:57:39,5,1,2,1,NA,4,4,5,NA,1,NA,5,3,1,NA,2,8,1,NA,NA,1,1,NA,1,NA,NA,NA,NA,NA,NA,NA,NA,NA,NA,3,2,1,4,4,4,1,1,2,3,2,3,2,1,2,2,2,3,3,3,3,2,3,2,4,4,1,1,4,1,4,2,1,2,2,2,2,1,3,3,2,2,2,2,3,1,2,3,4,2,3,4,4,3,6,2,4,1,1,1,1,2,3,4,1,7,6,4,6,7,7,6,6,6,5,4,7,5,5,5,5,6,4,5,4,5,5,5,4,2,4,3,5,3,2,4,4,4,4,1,5,1,4,2,3,2,5,5,3,1,2,4,4,5,5,3,3,3,2,2,2,1,4,4,4,5,1,2,1,2,4,5,1,5,4,5,2,4,3,4,3,1,5,3,2,3,2,4,3,3,2,2,4,3,2,1,1,4,2,1,4,4,2,4,3,1,2,3,2,1,1,2,5,4,2,3,3,1,2
Serbia,1996,2,2,1,1,1.76,60,5,2,3,0,2,NA,1,2,36,36.5,36.25,44.81860352,20.46809387,44,12,10:56:42,6,1,2,1,NA,4,2,4,1,5,5,4,3,1,NA,2,8,1,NA,NA,2,1,NA,2,ksp,NA,NA,NA,NA,3,NA,NA,NA,NA,3,3,3,4,3,4,4,2,3,3,3,4,3,3,3,3,3,3,3,2,3,3,2,3,4,1,3,1,3,1,5,3,2,1,1,3,4,3,3,1,3,1,3,1,1,1,3,4,4,4,5,7,1,2,5,NA,1,NA,4,4,1,1,8,1,2,4,NA,8,1,4,4,2,6,4,4,NA,4,4,4,7,7,NA,4,5,4,4,5,5,4,3,3,4,5,3,6,4,4,3,4,2,2,1,2,3,2,4,1,1,1,1,3,2,2,3,2,5,6,5,3,4,8,5,2,3,1,4,2,4,4,3,3,3,2,4,5,3,3,2,5,5,5,4,3,4,3,3,1,1,1,3,2,2,3,3,3,3,3,4,3,2,2,3,3,4,2,3,1,4,4,2,2,4,3,5,3,5,3,3,3
Serbia,1996,2,1,2,4,1.61,69,2,2,0,0,2,NA,1,2,36,36.5,36.25,44.81860352,20.46809387,56,6,22:12:17,6,1,2,1,NA,4,4,5,NA,4,4,4,5,2,1,2,8,3,1,5,6,2,8,2,KSP,PDS,posao,NA,NA,10,3,4,NA,NA,3,1,1,4,3,4,3,1,2,1,2,3,2,2,2,3,3,2,2,3,3,2,3,4,2,2,4,2,3,2,2,3,3,2,3,3,2,3,3,4,3,3,2,3,4,4,3,4,3,7,4,3,5,3,4,NA,5,3,5,4,4,5,5,4,4,7,3,1,5,5,3,5,4,4,4,3,4,3,5,7,5,5,4,4,4,4,4,5,4,1,4,4,6,6,5,5,6,5,5,4,3,2,3,4,3,3,4,4,4,2,4,3,2,2,2,4,5,4,2,2,5,5,2,2,4,5,1,1,1,1,1,5,4,3,4,4,4,4,4,4,4,3,3,4,4,2,2,2,2,4,4,2,3,3,2,2,2,4,3,4,3,3,3,4,4,2,2,2,3,2,3,4,4,3,3,3,2,3,4
Serbia,1996,1,1,1,4,1.85,98,3,2,12,7,2,NA,1,2,36,36.5,36.25,44.81860352,20.46809387,75,4,13:55:41,6,1,2,3,6,4,4,5,NA,4,3,4,4,2,1,1,NA,1,NA,NA,4,1,NA,1,NA,NA,NA,NA,NA,NA,NA,NA,NA,NA,3,2,2,2,2,3,3,4,3,3,3,3,3,4,3,4,2,3,3,3,2,2,3,3,3,3,4,4,2,3,2,3,3,3,3,4,3,4,3,3,2,2,4,3,3,4,2,4,5,5,8,5,5,5,5,NA,2,4,2,5,3,8,4,7,2,5,5,5,3,5,5,8,4,3,NA,3,5,3,3,4,4,NA,3,5,4,4,4,4,4,2,1,4,5,4,4,4,4,4,4,1,3,2,2,3,4,5,3,5,4,2,1,4,2,3,3,5,6,4,4,4,4,5,4,4,4,4,4,4,4,4,4,3,3,3,4,4,3,4,4,4,4,4,4,4,4,3,3,3,3,2,3,3,3,3,4,4,3,4,3,3,4,4,3,3,4,3,4,3,3,3,3,3,3,4,2,2,3,3,4
Tsinghua,1996,2,1,2,7,1.59,49,3,2,10,5,2,0,1,2,36.2,36.3,36.25,30.58009338,114.273407,78,17,11:05:28,7,3,2,1,0,4,4,5,0,8,3,5,3,1,1,2,5,1,1,1,1,2,1,2,NA,NA,NA,NA,NA,0,0,0,0,0,4,3,3,4,3,4,2,3,2,3,3,2,2,2,2,2,4,3,2,3,2,2,4,3,2,2,2,2,3,3,4,2,3,4,4,4,3,3,3,3,3,3,3,3,3,3,3,4,5,5,6,5,2,1,5,3,1,4,5,5,2,5,2,3,2,6,3,6,7,1,7,5,3,4,5,4,7,2,3,5,4,4,6,5,5,5,5,5,5,5,5,5,5,2,4,5,5,5,5,3,4,3,4,4,3,4,3,4,4,4,2,4,1,2,1,3,3,5,4,4,4,4,2,4,4,4,1,1,1,1,2,5,4,2,2,4,2,2,4,4,2,1,2,5,5,1,2,5,5,2,4,4,2,2,2,3,4,3,5,2,2,4,4,4,4,2,4,4,3,3,2,4,2,3,4,4,4,4,3
METU,1996,2,1,2,7,1.58,52,4,2,NA,NA,2,NA,1,2,36.2,36.3,36.25,39.91169739,32.84030151,69,6,10:09:03,3,2,2,1,NA,4,4,5,NA,7,3,8,5,1,NA,2,5,1,NA,NA,1,1,NA,1,NA,NA,NA,NA,NA,NA,NA,NA,NA,NA,3,4,3,4,3,4,3,2,2,3,4,3,3,3,3,3,3,2,3,2,2,3,2,3,3,3,2,4,4,3,4,4,4,2,2,4,4,4,4,4,5,4,4,3,4,4,4,5,2,3,6,6,4,3,4,3,3,3,3,3,2,2,6,3,1,3,2,3,3,5,4,5,3,4,2,2,6,2,5,3,3,2,4,4,4,4,4,5,4,3,3,3,7,4,4,4,5,4,4,3,3,2,3,2,3,4,3,2,2,2,3,2,2,2,2,5,7,6,4,6,6,5,3,3,3,4,3,3,2,3,4,4,3,2,2,4,4,3,4,4,3,4,3,3,3,3,4,4,4,4,5,4,2,2,2,3,5,3,3,2,3,4,3,4,3,3,2,4,3,4,3,5,3,3,3,4,3,2,4
METU,1996,2,1,1,5,1.64,48,4,2,1,0,2,NA,1,2,35.4,37.1,36.25,39.91169739,32.84030151,64,2,09:45:28,3,2,2,1,NA,4,4,5,NA,7,5,8,7,1,NA,2,8,1,NA,NA,6,1,NA,1,NA,NA,NA,NA,NA,NA,NA,NA,NA,NA,5,5,3,5,2,4,1,3,4,4,4,3,5,3,3,4,3,2,2,2,3,2,2,3,4,1,3,4,4,4,5,4,5,5,5,5,5,5,5,5,5,5,4,5,2,5,5,6,4,5,2,5,6,2,6,5,6,5,4,2,3,6,6,5,2,2,6,3,2,5,5,5,2,2,6,2,5,3,3,2,2,2,3,5,5,5,5,5,5,5,5,5,4,3,5,4,3,3,3,2,4,2,3,3,3,4,4,5,4,2,2,3,2,2,2,5,6,7,2,6,5,6,1,4,1,3,5,4,5,3,5,2,2,1,1,1,5,1,3,5,3,4,4,2,4,5,5,2,5,4,2,4,5,1,5,4,4,5,5,1,1,5,5,3,5,5,2,5,5,5,5,5,3,3,5,2,5,1,5
Serbia,1996,2,1,2,7,1.73,55,3,2,0,0,2,NA,1,2,36.12,36.39,36.255,44.81860352,20.46809387,75,4,10:17:59,6,1,2,1,NA,4,4,5,NA,2,2,4,4,1,NA,2,4,1,NA,NA,2,1,NA,1,NA,NA,NA,NA,NA,NA,NA,NA,NA,NA,1,2,1,5,2,1,1,1,1,1,1,1,2,5,3,5,3,4,5,5,5,5,4,4,4,3,4,4,5,2,4,5,5,5,3,5,5,4,5,4,3,3,4,4,2,4,3,8,5,7,8,8,8,5,7,5,5,6,4,5,8,8,8,8,5,3,4,8,NA,3,1,4,3,5,5,3,5,3,1,7,7,1,5,5,5,5,5,5,5,5,5,5,6,7,5,4,7,7,7,4,3,2,2,3,3,4,2,2,4,2,3,4,2,3,3,2,2,5,3,4,1,1,3,3,1,5,4,4,4,4,3,2,4,3,2,2,3,2,3,4,3,4,4,3,4,4,1,1,3,3,3,4,2,5,2,3,4,3,3,2,4,2,5,2,5,4,1,5,5,4,4,3,2,4,4,3,4,2,4
Serbia,1996,2,1,2,2,1.6,55,3,2,0,0,2,NA,1,2,36.8,35.8,36.3,44.81860352,20.46809387,65,8,09:38:39,6,1,2,1,NA,4,4,5,NA,6,1,5,3,2,1,2,8,3,1,6,6,1,NA,1,NA,NA,NA,NA,NA,NA,NA,NA,NA,NA,4,3,2,5,5,5,3,3,5,3,5,5,5,3,4,5,2,2,4,4,3,3,4,2,5,2,4,1,1,1,1,1,1,1,1,1,1,1,1,1,1,1,1,1,1,1,1,1,2,1,5,4,4,1,1,7,3,4,1,8,1,8,4,3,1,1,3,5,5,3,3,2,3,3,1,3,1,1,5,5,3,5,4,5,4,4,4,4,4,2,4,3,7,5,4,6,5,5,6,4,4,1,2,1,1,2,5,1,4,1,1,1,2,1,2,5,5,5,6,3,6,2,1,2,4,4,1,4,1,1,4,4,2,4,1,1,5,5,4,2,2,3,3,3,4,4,1,1,4,4,1,2,4,4,1,4,1,3,3,3,1,3,2,1,1,1,1,3,4,1,1,1,5,3,1,1,3,1,4
Kassel,1996,2,1,1,5,1.68,59,4,2,2,0,2,NA,1,2,36.1,36.5,36.3,51.31669617,9.5,62,7,10:03:59,1,1,2,1,NA,4,4,4,4,4,3,4,3,1,NA,2,8,1,NA,NA,1,1,NA,1,NA,NA,NA,NA,NA,NA,NA,NA,NA,NA,4,3,4,4,3,2,3,2,2,4,4,3,3,2,3,3,2,2,3,2,2,2,2,2,4,2,2,2,2,2,2,2,2,2,2,2,4,2,2,2,2,2,2,2,2,2,2,3,2,2,3,2,3,4,2,3,1,2,2,2,2,3,2,4,2,3,2,4,1,2,3,1,1,1,2,2,4,5,1,4,4,2,3,5,5,5,5,5,5,2,5,5,3,2,3,3,3,2,2,4,4,2,4,4,4,4,4,2,3,4,3,3,2,3,2,4,6,5,4,4,2,4,3,2,2,5,4,4,2,3,2,4,2,1,2,4,4,2,2,3,2,4,3,4,4,4,4,3,3,3,3,3,2,2,2,1,1,4,3,2,3,3,3,4,3,4,2,5,4,5,5,4,2,4,3,3,3,3,2
Kassel,1996,2,1,2,3,1.64,65,3,2,12,0,2,NA,1,2,36.1,36.5,36.3,51.31669617,9.5,62,1,10:12:42,1,1,2,1,NA,4,4,5,NA,5,1,6,5,1,NA,2,8,1,NA,NA,3,1,NA,2,Gesellschaftsspiele,Pen'n'Paper,NA,NA,NA,7,6,NA,NA,NA,4,3,3,4,3,3,3,4,3,4,3,3,4,3,3,3,1,2,3,2,3,2,2,3,4,2,3,1,2,2,2,2,1,4,3,3,4,2,2,4,2,1,1,1,1,2,2,6,4,3,6,4,6,2,5,2,6,6,2,2,5,6,3,2,2,3,2,5,2,2,2,2,1,2,1,2,1,2,2,3,6,1,3,4,5,4,4,5,4,2,5,4,6,5,6,4,5,4,5,3,4,2,2,2,3,4,2,2,2,2,4,3,1,3,2,5,6,6,4,3,5,6,3,4,2,5,4,2,4,5,1,3,4,2,2,4,2,2,5,5,4,5,4,3,5,5,4,3,4,4,5,5,3,2,3,2,1,4,2,4,3,3,2,4,3,4,2,4,4,4,5,5,3,5,4,4,3,2,5
METU,1996,1,1,1,6,1.76,74,4,2,0,NA,1,6,1,2,36.4,36.2,36.3,39.91169739,32.84030151,64,6,10:54:58,3,2,2,1,NA,4,4,4,1,5,2,8,4,2,1,2,3,1,NA,NA,1,1,NA,1,NA,NA,NA,NA,NA,NA,NA,NA,NA,NA,3,4,3,4,3,2,2,1,3,3,4,3,4,3,3,3,3,3,2,3,4,3,3,4,4,3,2,3,3,4,3,3,2,3,2,3,4,4,3,3,4,3,3,2,2,3,4,3,3,2,6,3,5,5,2,2,2,4,2,2,3,4,5,5,2,2,2,2,2,2,2,2,2,2,2,1,3,2,3,2,2,2,2,5,5,5,5,5,4,4,4,5,5,5,5,5,5,5,5,2,2,2,2,2,2,3,3,2,2,2,2,3,3,2,1,5,6,4,2,1,2,4,2,2,4,4,3,3,2,2,2,3,4,1,3,4,2,4,2,3,3,4,4,3,4,3,3,4,4,4,4,4,4,4,2,2,2,2,4,4,3,3,3,4,3,4,2,4,3,4,4,4,2,4,4,3,4,2,2
Oxford,1996,2,1,1,6,1.7,53,4,2,4,0,2,NA,1,2,36.2,36.4,36.3,51.75,-1.25,74,2.777777778,08:23:29,5,1,2,1,NA,4,4,4,4,7,5,8,5,1,NA,2,8,1,NA,NA,5,1,NA,1,NA,NA,NA,NA,NA,NA,NA,NA,NA,NA,3,3,2,4,4,4,2,2,3,1,3,2,4,2,3,4,3,3,2,3,3,1,2,3,4,3,3,2,4,3,4,2,1,3,4,4,5,5,5,2,3,2,2,2,4,1,4,4,3,1,4,2,2,3,2,3,1,3,2,1,2,3,1,5,1,1,1,1,1,1,1,7,1,1,1,1,1,1,2,1,1,1,1,5,5,4,4,5,4,4,5,4,6,6,5,5,5,5,5,3,1,1,1,2,1,3,1,2,2,3,1,2,1,2,2,5,7,4,1,5,6,7,2,4,3,5,4,2,4,3,3,4,4,2,4,4,4,3,2,4,4,4,4,2,4,5,4,4,4,4,5,5,1,2,1,2,4,4,4,3,2,2,3,4,3,3,2,5,4,5,4,4,2,4,4,4,4,2,5
Kassel,1996,2,1,2,7,1.72,69,3,2,6,0,2,NA,1,2,36.4,36.2,36.3,49.88749695,8.644607544,76,1,11:02:04,1,1,2,1,NA,4,4,5,NA,8,2,8,5,2,1,2,1,1,NA,NA,1,2,4,1,NA,NA,NA,NA,NA,NA,NA,NA,NA,NA,3,3,4,4,3,3,4,4,3,5,4,3,4,3,3,3,2,2,2,3,2,3,3,3,5,2,3,2,5,4,4,2,1,3,3,4,4,4,2,3,3,2,3,4,3,2,2,4,4,5,5,5,5,3,4,5,4,3,4,3,3,5,4,5,4,4,4,5,4,4,3,5,4,4,3,4,4,4,4,4,6,4,4,5,5,5,5,3,4,3,5,5,3,6,6,6,7,5,5,3,2,1,2,2,1,3,2,3,2,3,2,1,2,3,2,5,6,4,2,3,3,5,3,3,3,3,3,2,2,3,3,4,4,2,2,3,3,2,1,1,3,4,4,3,3,5,5,3,3,3,4,3,3,3,3,2,3,3,3,3,2,3,3,3,3,3,2,4,4,4,3,3,3,3,3,4,3,2,2
Tsinghua,1996,1,2,1,7,1.73,54,2,2,6,0,2,0,1,2,36,36.6,36.3,30.58009338,114.273407,74,16,11:06:39,7,3,3,1,0,4,2,4,1,2,2,2,2,1,1,2,3,3,2,2,2,2,1,1,ÐÄÀíÎÀÉúÐ­»á,ÇàÄêÖ¾Ô¸ÕßÐ­»á,ÇàÄê´«Ã½ÖÐÐÄ,Ó¢Óï¹ã²¥Ì¨,NA,1,2,4,1,NA,3,4,2,3,3,3,1,2,1,2,3,2,2,2,2,1,3,3,2,4,2,4,3,2,4,2,2,4,4,2,4,2,2,4,4,4,4,2,4,4,2,2,2,2,2,2,4,6,6,6,5,6,2,7,2,6,2,5,2,5,2,6,2,2,2,2,6,2,2,4,2,2,2,2,6,6,6,2,2,2,2,2,2,4,2,4,4,4,4,4,3,4,4,2,4,7,7,6,7,2,2,2,2,2,2,2,2,4,2,3,4,4,2,2,2,2,2,3,2,2,3,1,2,4,5,5,2,2,2,2,4,4,4,1,4,4,2,4,4,4,4,2,4,5,3,4,2,4,3,4,2,2,2,2,2,2,2,2,3,2,2,2,2,4,4,2,3,4,2,2,2,2,4,2,2,2,2,1,3
Kassel,1996,2,1,1,2,1.66,50,4,2,2,0,2,NA,1,2,36.3,36.3,36.3,51.31669617,9.5,62,1,10:07:18,1,1,2,1,NA,4,4,4,2,4,3,5,5,2,1,2,8,1,NA,NA,3,1,NA,2,Sportfreunde,NA,NA,NA,NA,2,NA,NA,NA,NA,3,3,5,4,4,4,3,4,3,4,4,4,4,2,3,3,3,2,3,2,2,2,2,3,4,2,3,4,3,3,4,2,2,4,4,4,4,4,4,4,3,3,3,2,3,2,3,4,1,1,1,2,2,1,1,2,1,1,3,1,1,1,1,1,1,1,2,2,1,1,1,1,2,2,1,2,1,2,3,7,4,1,2,5,5,5,5,4,4,3,5,5,5,4,5,4,4,4,5,2,1,1,2,1,1,1,2,3,1,2,2,1,2,2,2,5,5,7,5,3,6,6,2,3,1,4,3,3,3,3,4,4,2,2,3,4,4,2,3,4,3,4,2,4,4,5,5,4,4,3,4,4,1,1,2,2,3,5,5,3,2,3,3,3,4,4,2,3,3,5,4,4,1,4,5,4,4,2,4
Serbia,1996,2,1,2,6,1.75,55,4,2,25,0,2,NA,1,2,36.2,36.4,36.3,44.81860352,20.46809387,56,6,19:57:28,6,1,2,1,NA,4,4,5,NA,6,6,4,3,1,NA,2,8,1,NA,NA,1,2,8,2,aiesec,NA,NA,NA,NA,25,NA,NA,NA,NA,5,3,3,5,5,4,4,4,4,4,4,4,3,2,4,3,2,2,2,2,3,3,3,4,5,2,3,5,4,2,5,4,2,2,2,5,5,5,4,4,4,2,4,3,1,3,5,2,2,2,3,8,2,2,3,3,2,NA,2,4,1,1,8,2,1,8,3,8,NA,8,4,1,5,6,NA,NA,7,5,1,7,7,6,5,5,5,5,5,5,5,3,4,4,3,6,5,3,4,4,5,3,4,1,4,2,3,4,2,4,2,1,2,1,2,3,2,5,4,5,2,4,4,4,2,4,2,4,2,2,2,2,2,3,3,3,3,2,3,2,4,1,1,4,4,3,4,4,2,2,1,3,4,4,2,3,2,3,1,4,2,2,3,3,3,4,2,1,2,4,4,1,1,1,2,2,3,4,3,2,2
Serbia,1996,2,1,1,7,1.61,46,3,2,5,0,2,NA,1,2,36.2,36.4,36.3,44.81860352,20.46809387,45,12,11:33:38,6,1,2,1,NA,4,4,5,NA,6,4,5,4,2,1,2,3,1,NA,NA,2,1,NA,1,NA,NA,NA,NA,NA,NA,NA,NA,NA,NA,2,5,2,5,4,4,1,1,5,2,4,3,3,3,5,4,2,2,3,2,4,2,2,4,5,3,4,4,4,4,3,4,4,4,2,5,4,4,2,4,3,2,2,4,2,2,4,5,2,2,3,1,1,1,1,5,1,6,2,1,1,2,2,2,1,7,1,2,1,1,7,1,1,1,1,1,6,1,1,NA,3,NA,NA,5,4,3,3,5,4,4,4,4,2,2,3,2,2,2,3,4,3,4,4,4,4,5,2,3,3,2,2,4,1,3,2,5,3,4,1,3,2,7,2,4,1,4,1,4,2,4,4,4,5,1,2,2,3,4,4,4,4,4,4,4,5,5,2,2,4,4,5,3,2,4,1,2,2,4,4,5,2,3,2,4,4,4,2,4,4,4,4,2,4,5,2,2,2,2,4
Kassel,1996,2,1,2,4,1.68,64,4,2,1,0,2,NA,1,2,36.1,36.5,36.3,51.31669617,9.5,62,7,10:07:02,1,1,2,1,NA,3,3,5,NA,8,5,7,6,2,1,2,8,1,NA,NA,1,1,NA,1,NA,NA,NA,NA,NA,NA,NA,NA,NA,NA,2,3,3,5,3,4,2,4,2,4,3,2,4,3,2,3,3,2,3,3,2,3,2,2,5,2,3,4,5,4,5,4,2,3,4,3,4,4,4,4,4,2,3,2,2,2,4,5,4,5,2,6,6,3,6,3,2,5,3,4,2,5,3,5,1,6,2,6,2,5,3,2,4,6,3,4,3,4,2,7,2,3,4,5,5,4,5,5,4,2,5,5,3,3,3,3,4,2,5,2,5,1,3,2,4,4,4,2,2,3,2,2,2,4,2,3,3,4,3,3,2,2,2,4,1,5,2,2,3,2,3,5,4,2,2,4,4,1,4,3,2,5,2,4,3,4,4,3,3,4,4,2,1,1,2,1,4,4,4,1,2,4,3,3,4,2,2,5,4,3,4,4,1,4,4,3,3,1,2
METU,1996,2,1,2,7,1.6,62,2,2,NA,NA,2,NA,1,2,36.2,36.4,36.3,39.91169739,32.84030151,64,6,10:48:10,3,2,2,1,NA,4,4,5,NA,4,8,4,8,2,8,2,8,1,NA,NA,3,1,NA,1,NA,NA,NA,NA,NA,NA,NA,NA,NA,NA,4,3,3,4,4,2,2,3,2,2,5,3,5,4,4,4,3,3,3,3,4,3,3,5,5,3,4,4,5,4,5,5,4,4,3,4,4,5,4,5,4,2,4,4,3,4,4,6,2,2,6,7,7,6,7,6,2,6,2,2,7,2,4,7,2,2,2,7,7,7,7,1,6,2,2,1,2,2,7,2,6,1,1,5,5,5,4,5,5,5,5,5,6,7,6,7,7,6,5,5,5,2,5,2,4,5,5,1,5,2,1,1,2,5,1,5,8,6,6,6,6,5,1,1,4,5,2,5,2,2,5,5,4,4,2,5,5,2,5,3,5,5,2,2,5,5,5,5,5,5,5,5,4,2,2,5,2,5,4,2,2,5,2,4,5,2,2,5,5,4,2,5,1,4,5,5,4,1,1
Serbia,1996,2,1,1,3,1.75,55,2,1,5,8,2,NA,1,2,36.3,36.3,36.3,44.81860352,20.46809387,50,8,17:39:48,6,1,2,1,NA,4,4,5,NA,5,4,5,4,1,NA,2,3,3,6,3,2,2,5,2,vrtic,porodia,komsije,NA,NA,2,3,1,NA,NA,5,5,5,5,4,5,5,4,5,4,5,5,5,1,4,4,1,1,1,1,4,2,1,3,5,2,4,5,5,5,4,5,5,5,4,5,4,4,4,4,4,4,4,5,4,5,4,2,2,1,1,5,7,4,1,NA,1,NA,1,1,1,2,1,2,1,1,NA,3,1,1,1,1,NA,NA,3,NA,4,3,1,5,5,1,NA,5,4,4,4,4,4,4,4,4,3,2,3,2,1,2,2,1,2,1,2,2,1,1,2,1,2,1,4,3,2,1,2,2,4,6,4,3,4,4,4,1,2,4,2,4,4,3,4,4,4,4,4,2,2,2,5,5,5,5,4,4,3,4,1,1,2,3,4,4,2,2,1,1,3,3,4,2,3,2,3,3,4,4,4,4,4,4,4,4,5,4,4,4,1,4,4
Serbia,1996,2,1,2,7,1.72,66,4,2,NA,NA,2,NA,1,2,36.1,36.6,36.35,44.77920532,20.4539032,96,4,11:19:55,6,1,2,1,NA,4,4,5,NA,4,4,4,6,1,NA,2,7,1,NA,NA,3,1,NA,1,NA,NA,NA,NA,NA,NA,NA,NA,NA,NA,3,5,3,5,5,5,3,2,2,5,3,4,3,2,3,3,2,2,2,3,2,3,2,3,3,2,2,2,2,2,2,1,2,4,2,5,5,4,3,4,2,2,2,2,2,2,4,4,2,2,2,2,4,2,2,3,2,NA,2,2,2,5,2,5,2,4,NA,8,NA,2,2,2,NA,NA,3,NA,3,NA,2,6,6,NA,3,5,5,4,5,5,5,5,4,5,3,4,4,3,3,3,2,4,4,2,4,4,2,3,2,2,3,3,4,3,2,2,2,4,3,4,2,6,5,4,3,3,4,4,2,2,4,3,3,4,4,2,3,3,2,2,4,4,4,4,4,3,3,3,2,2,4,4,4,3,4,2,2,3,4,4,4,2,3,4,3,4,3,4,2,4,2,3,2,2,2,4,3,3,2,1,4
Serbia,1996,2,1,1,7,1.73,61,5,2,0,0,2,NA,1,2,36.1,36.6,36.35,44.77920532,20.4539032,65,10,11:23:51,6,1,2,1,NA,4,4,4,2,4,3,6,6,2,2,2,8,1,NA,NA,3,1,NA,1,NA,NA,NA,NA,NA,NA,NA,NA,NA,NA,4,4,5,5,5,4,4,1,3,4,3,3,4,2,3,3,2,2,2,2,3,2,2,3,5,2,1,3,3,2,2,2,2,4,2,4,4,4,2,4,2,2,3,4,2,2,2,2,5,2,3,5,2,2,5,NA,1,6,2,2,2,2,5,2,1,2,NA,3,NA,2,2,2,NA,NA,NA,NA,NA,NA,8,6,4,NA,1,5,5,4,5,4,4,4,4,4,3,4,3,4,3,3,3,4,2,1,2,2,2,3,1,2,2,2,2,2,1,2,2,3,4,6,3,6,7,6,2,4,4,4,2,4,2,2,2,4,2,1,2,3,1,2,5,4,4,5,5,5,4,4,1,1,1,3,3,2,2,2,1,2,4,4,3,2,4,2,2,4,4,3,2,5,4,4,4,5,2,4,4,2,2,3,4
Serbia,1996,2,1,1,7,1.63,52,4,2,0,0,2,NA,1,2,36.4,36.3,36.35,44.81860352,20.46809387,65,10,10:15:53,6,1,2,1,NA,4,4,4,1,4,2,4,4,1,NA,2,8,1,NA,NA,1,2,3,2,Plesni klub,Demonstratori Centra za promociju nauke,NA,NA,NA,10,2,NA,NA,NA,5,4,4,2,3,5,2,2,3,3,4,3,5,3,4,5,2,2,2,2,5,2,3,4,5,2,4,2,5,3,3,2,1,1,4,4,3,2,3,4,1,1,1,1,3,1,3,5,1,2,5,4,7,8,3,5,1,NA,1,2,4,1,8,8,1,1,1,7,1,1,1,1,1,1,1,1,1,1,1,7,7,1,NA,5,5,5,5,5,5,5,5,3,6,6,6,6,6,6,6,3,4,1,2,1,1,2,2,1,2,1,1,1,1,1,1,4,6,7,1,6,6,6,4,2,2,5,2,3,4,4,3,4,4,3,2,4,4,2,4,5,5,5,4,2,5,3,1,1,1,3,2,2,3,1,1,3,5,5,2,1,2,3,3,5,4,5,1,3,5,4,4,4,1,4,5,4,5,1,5
Oslo,1996,2,1,2,5,1.6,48,4,2,0,28,2,NA,1,2,36.4,36.3,36.35,59.95599365,11.04919434,94,-6,09:37:59,4,1,2,1,NA,4,4,5,NA,2,1,4,2,1,NA,2,7,3,1,4,1,1,NA,1,NA,NA,NA,NA,NA,NA,NA,NA,NA,NA,4,3,4,5,5,2,4,5,5,4,5,4,5,2,3,4,2,2,2,2,3,2,2,3,5,1,3,2,4,2,4,5,4,3,3,5,5,4,5,4,4,2,2,2,2,3,4,4,4,4,5,4,3,4,6,4,4,2,4,4,1,5,4,6,4,4,4,5,6,4,3,5,4,4,4,4,4,4,5,4,4,4,4,5,4,4,4,4,5,5,5,4,6,5,4,4,6,5,5,3,4,1,3,4,3,4,2,1,2,2,2,1,3,3,2,4,5,3,2,4,4,2,2,3,2,5,3,4,2,1,3,4,2,1,2,3,3,2,3,1,2,2,5,5,4,4,4,3,2,4,3,3,3,4,3,2,4,5,5,2,4,4,3,4,4,1,4,2,1,4,3,3,4,1,2,1,4,2,1
Tsinghua,1996,2,1,2,5,1.57,50,3,2,3,0,2,0,1,2,36.3,36.4,36.35,30.58009338,114.273407,82,12,09:27:49,7,3,2,1,0,4,4,5,0,7,3,7,5,1,1,2,8,1,1,8,1,1,3,1,Ñ§Éú»á,Çà´«,NA,NA,NA,4,3,NA,NA,NA,2,2,2,4,3,3,2,2,2,2,4,2,3,2,2,2,3,3,2,3,3,3,4,1,2,3,3,4,4,4,4,4,4,4,4,4,4,4,4,4,4,4,4,4,4,4,4,5,6,7,6,7,4,5,5,5,6,5,4,6,4,6,5,5,4,4,3,5,4,3,4,4,3,4,3,2,3,3,5,4,5,4,6,4,4,4,4,4,4,3,4,4,2,2,3,4,4,4,4,3,2,3,4,2,3,3,2,4,4,3,2,4,2,2,3,3,2,2,2,2,3,2,2,3,4,4,2,2,2,3,3,4,3,1,2,4,4,3,2,2,2,3,2,4,4,3,4,4,4,3,4,4,2,2,2,2,3,2,3,3,3,4,3,4,4,4,3,4,4,4,4,4,4,3,4,4,4,3,3
Oslo,1996,2,3,2,7,1.45,38,1,1,0,28,2,NA,1,2,36.3,36.4,36.35,NA,NA,83,-7,10:39:56,4,1,2,1,NA,4,4,5,NA,4,2,7,7,1,NA,2,8,1,NA,NA,1,1,NA,1,NA,NA,NA,NA,NA,NA,NA,NA,NA,NA,4,2,3,5,4,3,2,4,4,3,4,4,5,4,4,4,3,4,4,4,4,3,2,3,5,2,4,5,3,2,4,5,5,4,5,4,3,3,5,3,2,2,2,2,2,3,5,5,4,5,5,5,6,2,5,4,1,4,5,4,3,7,1,7,1,3,5,5,5,5,5,3,4,4,5,2,3,3,4,3,4,4,4,4,2,4,4,3,2,1,4,3,6,5,5,5,4,4,4,3,5,5,4,3,4,2,5,4,5,1,5,1,2,1,1,4,6,3,1,3,1,4,1,4,4,2,1,4,2,2,4,5,4,1,4,4,4,2,3,3,3,4,3,5,4,5,5,4,2,3,3,2,2,2,2,1,2,4,4,1,2,4,3,4,3,4,2,4,4,5,4,4,3,4,4,2,3,2,5
UCSB,1996,2,1,2,5,1.6002,81.81818182,2,1,1,0,2,NA,1,2,36.38888889,36.33333333,36.36111111,34.4329071,-119.8370972,64,6.111111111,NA,5,1,2,1,NA,4,4,5,NA,4,3,6,5,1,NA,2,8,1,NA,NA,1,1,NA,2,PPGA,0,0,0,0,5,0,0,0,0,3,2,1,1,3,3,1,2,1,2,2,3,4,4,3,4,3,3,4,4,4,4,4,1,5,5,5,1,4,2,4,1,1,4,3,4,4,3,4,3,1,1,2,1,3,1,2,4,4,4,6,5,5,7,6,4,4,6,5,6,2,7,6,2,2,2,2,6,3,4,2,1,4,5,2,3,2,2,3,6,6,2,4,4,4,3,5,4,3,2,3,3,5,3,3,2,5,3,5,3,4,2,3,2,2,4,2,5,4,5,2,1,1,2,2,5,4,1,2,3,3,3,2,2,4,4,1,1,5,5,2,5,4,2,5,4,3,3,2,5,4,3,5,5,2,4,3,5,4,3,2,2,2,4,2,2,4,4,4,1,2,4,5,4,4,3,4,2,4,4,3,4,5,5,2,3,4,2,4
UCSB,1996,2,1,1,6,1.7272,68.18181818,4,1,0,0,2,NA,1,2,36.33333333,36.44444444,36.38888889,32.56939697,-117.0158005,74,11.11111111,NA,5,1,2,1,NA,4,4,4,1,5,1,4,3,1,NA,2,5,1,NA,NA,4,1,NA,2,Volleyball,Soccer,health and wellness,Writing group,Math help group,5,7,5,4,2,4,3,3,4,3,3,4,3,2,3,4,2,4,2,2,3,2,2,2,2,3,2,3,1,5,3,3,1,4,2,4,1,1,3,2,4,4,4,4,3,2,1,1,4,1,1,3,2,3,2,4,3,4,5,5,3,3,2,5,2,2,4,5,3,3,2,4,5,3,3,3,2,4,3,3,3,2,2,3,3,3,3,3,5,5,5,5,5,4,3,4,3,4,3,3,2,3,2,2,2,2,1,1,3,2,2,2,1,2,1,3,4,2,4,2,5,5,5,4,4,2,3,2,4,4,5,4,2,4,4,3,4,3,1,2,4,3,2,3,3,3,2,4,4,4,5,5,5,5,3,4,3,2,3,2,1,4,4,2,2,3,4,3,3,2,3,4,4,4,4,4,4,3,5,4,4,4,2,5
UCSB,1996,2,4,2,7,1.651,47.72727273,3,1,2,0,2,NA,1,2,36.27777778,36.5,36.38888889,34.50210571,-120.1287003,84,10.55555556,NA,5,1,2,1,NA,4,4,5,NA,2,2,3,3,1,NA,2,6,1,NA,NA,1,1,NA,2,Phi Delta Epsilon,NA,NA,NA,NA,5,NA,NA,NA,NA,2,2,1,2,2,2,1,2,3,1,2,2,4,5,4,5,3,5,4,4,5,3,4,5,5,3,5,2,2,2,4,2,3,4,4,2,2,1,2,2,2,2,2,2,2,2,2,5,5,4,3,5,2,2,5,5,2,6,2,4,2,7,2,6,4,2,3,6,6,6,6,6,6,6,3,3,6,2,6,6,6,7,4,5,5,5,4,4,5,3,3,3,4,5,3,5,6,5,5,2,4,1,2,2,2,4,4,2,2,4,2,2,2,2,2,2,2,1,2,2,2,2,2,4,4,4,1,4,2,4,5,5,4,2,4,3,5,2,4,4,1,1,5,5,2,1,1,1,3,1,1,1,3,3,3,1,2,2,4,2,2,4,5,4,4,1,1,3,4,1,1,1,2,4,4,4,4,1,5
UCSB,1996,2,1,1,7,1.6256,52.27272727,3,1,0,0,2,NA,1,2,35.83333333,36.94444444,36.38888889,34.4329071,-119.8370972,47,9.444444444,10:59:00,5,1,2,1,NA,4,4,5,NA,7,3,8,8,1,NA,2,8,1,NA,NA,1,2,4,2,study group,sorority,NA,NA,NA,4,20,NA,NA,NA,4,5,5,3,4,4,5,4,3,5,5,4,5,1,3,4,3,2,1,2,1,3,3,3,5,3,2,4,4,3,4,4,3,4,1,4,4,4,4,4,3,2,2,2,1,3,4,1,5,1,1,1,3,1,2,3,1,2,1,1,1,2,1,1,1,1,2,5,2,2,1,2,2,2,3,1,2,2,1,5,4,2,3,4,4,3,5,5,2,3,5,5,6,6,6,6,5,5,6,1,1,1,1,1,1,2,1,1,1,3,2,1,1,2,2,3,3,4,2,2,4,2,2,4,2,4,3,2,4,4,2,3,2,2,2,4,4,2,2,2,3,2,3,2,4,4,3,5,2,4,4,2,5,2,5,2,4,4,5,2,1,4,3,4,2,4,4,2,3,4,4,4,2,2,4,4,3,2,4
VCU,1996,2,1,2,7,1.7526,70.45454545,4,2,0,0,2,NA,1,2,36.5,36.28,36.39,37.55259705,-77.49939728,94,13.33333333,10:54:19,5,1,2,1,NA,4,4,5,NA,4,3,5,5,1,NA,2,4,3,1,4,1,1,NA,2,Sorority,NA,NA,NA,NA,10,NA,NA,NA,NA,2,2,1,1,2,3,1,1,2,2,3,2,2,2,2,4,2,2,2,3,3,3,4,2,4,3,2,2,2,2,2,2,1,4,4,4,1,1,1,1,1,1,1,1,1,1,1,6,6,6,6,6,7,2,6,6,5,6,3,6,3,7,5,7,1,5,6,5,3,5,5,3,5,3,3,5,6,5,3,5,5,5,5,5,4,4,4,4,5,2,4,4,6,5,4,4,6,5,5,1,2,1,2,1,1,1,1,1,1,1,2,2,1,1,1,3,4,4,4,4,5,4,1,4,4,2,4,2,2,2,4,2,2,1,1,4,5,4,5,4,2,2,4,5,4,3,1,3,4,4,4,2,2,4,3,4,5,5,2,4,2,2,2,5,4,1,4,5,4,1,1,4,2,5,4,4,4,2,1
Serbia,1996,2,1,2,6,1.6,49,4,2,0,0,2,NA,1,2,36.3,36.5,36.4,44.81860352,20.46809387,45,12,10:17:40,6,1,2,1,NA,2,2,5,NA,1,NA,4,4,1,NA,2,4,1,NA,NA,1,1,NA,1,NA,NA,NA,NA,NA,NA,NA,NA,NA,NA,4,3,3,2,3,3,4,2,3,2,4,3,2,2,2,4,3,4,3,3,4,3,3,3,5,2,2,2,1,1,2,1,2,1,1,1,4,2,4,2,2,1,1,2,1,1,4,1,2,1,1,1,8,1,1,7,1,6,1,1,4,8,1,8,1,1,7,1,7,8,1,4,7,7,7,7,7,7,1,7,7,7,7,4,4,4,4,4,3,3,4,4,6,5,6,5,4,4,5,4,4,1,4,2,1,4,4,4,4,2,3,3,2,4,2,1,4,4,3,3,4,4,1,4,1,3,1,3,3,2,2,5,4,3,3,2,5,5,3,5,3,3,3,3,3,2,1,1,2,5,5,2,1,1,1,3,3,3,3,3,2,4,3,3,4,3,1,5,4,3,3,4,3,3,3,3,3,2,2
Kassel,1996,2,1,1,7,1.63,85,4,2,12,0,2,NA,1,2,36.6,36.2,36.4,51.31950378,9.516296387,71,4,10:13:03,1,1,2,1,NA,4,2,5,NA,5,5,7,7,1,NA,2,3,1,NA,NA,1,2,8,2,DLRG,NA,NA,NA,NA,6,NA,NA,NA,NA,3,5,2,2,1,4,2,3,3,3,3,3,2,3,4,3,2,3,3,2,3,2,3,4,5,1,3,3,3,1,2,2,1,1,1,4,3,1,1,1,1,1,1,2,1,1,1,2,2,1,3,6,1,4,3,6,1,3,1,2,1,2,1,4,1,1,3,2,1,1,1,1,1,1,2,2,2,3,1,5,4,1,1,5,5,5,4,5,3,3,4,3,3,3,5,5,4,3,3,1,2,1,3,2,2,3,1,3,3,2,2,3,3,3,3,5,4,4,2,2,1,2,4,2,3,5,3,1,4,2,2,1,3,1,3,3,2,2,1,4,3,5,5,5,4,4,5,5,3,3,4,3,1,2,1,1,4,4,5,1,2,2,4,4,3,4,3,2,4,2,5,5,1,3,2,3,3,1,4
Serbia,1996,2,1,2,6,1.6,54,5,2,3,0,2,NA,1,2,36.4,36.4,36.4,44.81860352,20.46809387,53,6,10:00:06,6,1,2,1,NA,4,4,5,NA,7,4,4,4,2,1,2,7,1,NA,NA,3,1,NA,1,NA,NA,NA,NA,NA,NA,NA,NA,NA,NA,3,4,4,4,4,4,4,4,4,4,4,4,4,3,3,3,3,2,1,2,2,2,2,3,5,2,3,2,3,2,2,2,2,2,2,2,3,3,3,4,1,1,2,2,1,3,2,4,4,4,8,8,5,4,8,4,4,NA,4,4,2,5,4,5,4,5,4,4,3,5,5,5,6,4,4,NA,4,4,8,4,6,4,4,5,5,4,5,5,4,3,3,4,3,3,3,3,3,3,3,2,4,1,4,3,2,4,4,3,2,2,3,3,3,4,2,3,4,4,1,4,4,4,4,4,4,4,2,2,2,2,2,5,4,3,3,2,3,4,4,3,3,3,3,3,3,3,2,2,1,3,4,4,3,3,2,2,3,4,3,2,2,3,3,4,3,2,2,3,3,3,3,3,3,5,3,3,3,2,4
Serbia,1996,2,1,2,7,1.78,70,5,2,4,0,2,NA,1,2,36.4,36.4,36.4,44.81860352,20.46809387,44,12,10:39:59,6,1,2,1,NA,4,4,5,NA,5,3,8,8,1,NA,2,8,1,NA,NA,4,1,NA,1,NA,NA,NA,NA,NA,NA,NA,NA,NA,NA,3,5,3,5,1,3,3,4,2,1,2,4,2,2,3,2,1,1,1,2,4,2,2,3,5,2,3,3,4,1,2,1,1,2,1,5,3,4,1,4,1,1,2,1,1,2,4,5,5,2,5,2,5,4,1,3,1,NA,4,2,1,4,4,2,1,7,5,7,6,3,2,3,3,5,5,NA,7,4,4,7,7,6,4,5,5,5,5,5,5,5,5,5,4,5,4,2,3,4,4,3,3,1,3,4,4,2,1,4,2,2,1,2,2,1,5,5,6,4,3,5,2,5,1,5,3,5,3,4,3,2,5,4,4,1,3,4,4,2,4,5,5,3,4,3,3,3,3,1,1,2,3,3,2,1,3,1,3,3,2,2,3,2,5,5,3,2,1,5,5,5,2,3,5,3,4,2,1,4,4
Serbia,1996,2,1,2,2,1.64,53,4,2,0,0,2,NA,1,2,36.3,36.5,36.4,44.81860352,20.46809387,45,12,10:58:47,6,1,2,1,NA,4,4,5,NA,5,4,5,5,1,NA,2,8,1,NA,NA,2,1,NA,1,NA,NA,NA,NA,NA,NA,NA,NA,NA,NA,4,3,2,2,4,3,1,2,4,4,3,3,3,3,4,4,3,3,3,2,3,3,3,4,4,3,3,4,4,3,4,2,2,3,3,4,4,4,4,3,4,1,3,2,1,1,4,4,4,4,4,4,3,5,4,4,4,4,3,2,3,3,3,4,3,5,4,5,4,5,4,3,5,5,5,3,5,4,3,6,5,5,5,4,4,4,4,4,4,3,4,3,3,4,3,3,4,3,3,2,3,2,3,2,2,3,3,4,2,2,2,2,4,3,2,4,6,4,2,4,4,6,4,4,4,3,2,2,3,3,2,4,4,3,2,2,4,4,3,2,2,3,3,3,3,3,3,3,3,4,4,2,4,3,3,2,4,4,4,3,2,2,3,4,4,2,3,3,4,3,3,4,4,3,3,4,2,2,2
Tsinghua,1996,2,1,2,7,1.66,60,2,2,0,0,2,0,1,2,36.7,36.1,36.4,30.58009338,114.273407,82,12,09:38:08,7,3,2,1,0,4,4,5,0,5,1,4,3,1,1,2,1,1,1,1,1,2,1,1,Ñ§Éú»á,NA,NA,NA,NA,NA,NA,NA,NA,NA,2,2,2,2,4,2,2,3,2,2,2,2,2,2,3,2,5,3,4,5,2,4,5,2,3,4,2,4,4,4,4,4,3,2,2,4,4,4,4,3,2,4,4,2,3,3,4,6,5,5,5,5,5,5,5,5,4,4,5,4,5,5,4,5,4,4,3,3,3,4,2,4,3,3,3,3,4,3,4,3,2,3,4,5,5,5,4,4,3,4,4,4,6,2,3,3,6,5,5,2,4,2,3,2,4,4,4,4,2,2,4,3,2,4,3,1,2,3,2,2,2,2,2,3,3,4,2,2,2,3,4,4,2,2,2,3,3,2,3,4,2,2,3,2,3,2,2,3,3,3,3,3,2,3,2,2,4,3,2,2,2,3,2,4,4,2,4,3,2,4,3,2,4,2,4,4,3,2,4
SMU,1996,2,1,2,7,1.64,60,3,2,2,0,2,NA,1,2,36.4,36.4,36.4,1.293106079,103.8558044,71,26,09:44:49,5,1,2,1,NA,4,4,5,NA,8,5,8,7,1,NA,2,8,1,NA,NA,5,2,8,2,Volunteer,LTB,Biz Law,DA,JC clique,11,7,4,4,5,2,2,2,5,3,4,2,2,2,4,4,2,4,3,2,3,4,3,2,2,3,2,2,2,4,2,2,2,5,2,4,4,4,4,2,4,4,4,1,4,2,1,1,2,3,1,4,4,5,4,6,6,5,4,5,3,4,5,6,5,5,5,6,7,1,6,5,2,2,3,1,2,2,2,5,2,4,1,2,3,3,2,4,5,4,5,5,5,5,5,5,5,6,7,6,6,6,6,5,2,4,1,3,1,2,3,3,2,2,1,2,2,1,2,2,4,5,4,2,2,4,5,3,5,5,3,1,2,4,5,4,5,5,1,4,5,2,4,1,5,4,4,5,4,3,5,4,3,4,3,4,3,3,2,2,4,1,4,2,4,2,2,2,4,2,4,3,4,4,4,4,4,4,5,3,4,2,1,5
Serbia,1996,2,1,2,7,1.67,58,3,1,2,0,2,NA,1,2,36.4,36.4,36.4,44.81860352,20.46809387,75,4,10:47:36,6,1,2,1,NA,4,2,5,NA,2,1,4,3,1,NA,2,8,1,NA,NA,1,1,NA,1,NA,NA,NA,NA,NA,NA,NA,NA,NA,NA,1,5,5,2,5,5,1,1,5,3,5,5,5,4,4,5,3,3,1,5,1,5,5,3,5,2,1,5,5,1,5,5,1,2,5,5,5,5,5,5,5,1,1,5,1,1,5,4,4,4,4,4,7,4,4,4,4,4,4,4,4,4,4,7,4,4,4,4,4,4,4,4,4,4,4,4,4,4,4,4,4,4,4,5,5,5,5,5,5,5,5,5,7,7,7,7,7,7,7,1,1,1,1,1,1,1,1,5,1,4,1,5,1,5,1,1,1,4,1,3,1,1,1,1,1,5,1,5,1,1,5,5,5,1,1,1,5,5,1,5,1,3,3,1,3,2,3,3,1,1,5,5,1,3,3,5,5,5,3,2,1,5,5,5,5,1,1,3,5,1,3,1,5,1,1,1,1,5,5
Tsinghua,1996,2,1,2,1,1.53,53,2,2,1,3,2,0,1,2,36.4,36.4,36.4,30.58009338,114.273407,71,16,10:44:14,7,3,2,1,0,4,4,5,0,8,3,4,2,1,1,2,3,1,1,5,5,2,1,2,NA,NA,NA,NA,NA,NA,NA,NA,NA,NA,4,4,4,4,5,5,1,4,2,2,4,2,2,3,2,2,4,4,3,3,2,4,4,4,3,3,2,4,4,3,4,3,4,4,4,4,4,4,4,4,4,2,2,2,2,3,4,5,2,2,5,6,3,5,5,6,2,5,2,2,2,6,5,6,2,3,1,2,1,2,2,2,3,2,2,1,5,2,3,6,3,2,4,5,5,5,5,5,5,5,5,5,5,2,4,5,4,4,4,2,2,2,2,3,4,3,4,3,2,3,2,2,1,4,2,2,2,4,2,2,1,2,2,4,4,4,1,3,3,4,4,4,2,2,2,4,4,2,2,4,2,3,2,4,3,2,3,4,5,2,4,5,2,1,2,2,3,3,2,2,2,4,4,4,4,3,2,4,2,2,2,4,2,4,4,4,3,2,2
METU,1996,2,1,1,3,1.62,52,4,2,8,0,1,4,1,2,36.4,36.4,36.4,39.91169739,32.84030151,70,3,09:35:03,3,2,2,1,NA,4,4,4,1,4,2,5,4,1,NA,2,8,1,NA,NA,3,2,8,2,Ankara G?n¨¹ll¨¹ Tak?m?,NA,NA,NA,NA,12,NA,NA,NA,NA,4,2,3,4,2,2,2,2,1,2,3,2,3,3,3,4,2,3,3,3,3,3,3,4,4,4,2,4,4,4,4,4,4,4,4,4,3,3,3,3,3,2,4,4,2,3,4,6,5,5,6,6,6,6,5,6,4,6,2,5,3,5,5,3,1,4,4,6,5,5,4,6,4,5,3,2,4,2,6,4,4,2,3,4,4,4,5,4,4,4,3,4,6,5,5,5,6,5,5,4,4,3,3,4,4,4,3,3,4,3,1,4,2,3,1,5,7,6,6,6,6,3,3,3,4,4,2,2,4,3,2,4,4,2,3,4,4,4,4,4,4,4,4,2,5,5,5,4,4,3,4,4,2,2,2,2,3,4,4,4,2,3,4,3,4,5,2,4,2,4,3,5,5,4,5,2,2,2,5
VCU,1996,2,1,2,7,1.5748,75,4,2,2,0,2,NA,1,2,36.44444444,36.38888889,36.41666667,37.5809021,-77.41529846,85,15,09:30:02,5,1,2,1,NA,4,4,5,NA,5,5,2,2,2,1,2,4,3,1,6,2,2,1,1,NA,NA,NA,NA,NA,NA,NA,NA,NA,NA,4,2,4,5,4,4,4,3,4,5,5,5,5,2,3,4,1,1,2,2,3,1,3,3,5,2,2,1,4,1,4,1,1,1,4,4,4,2,2,2,2,2,2,2,2,2,2,2,2,2,2,2,2,1,2,2,2,2,2,2,2,2,2,2,2,2,2,6,2,2,2,2,2,2,2,2,2,2,2,6,6,2,2,5,5,5,5,5,5,3,3,3,7,5,4,4,5,5,5,2,2,2,2,2,2,2,2,2,2,2,2,2,2,2,2,4,7,6,5,5,5,5,2,4,4,4,2,2,4,2,2,4,4,2,4,2,2,4,2,4,2,2,4,4,4,4,2,2,2,2,2,2,2,2,2,2,4,4,4,2,2,4,4,2,4,4,4,4,4,4,4,2,2,4,4,2,2,2,4
VCU,1996,2,1,1,7,1.7526,68.18181818,4,2,0,4,2,NA,1,2,36.38888889,36.44444444,36.41666667,37.55220032,-77.45819855,91,14.44444444,10:34:00,5,1,2,1,NA,4,2,4,2,6,1,5,5,1,NA,2,2,3,1,3,1,1,NA,2,Sorority,NA,NA,NA,NA,10,NA,NA,NA,NA,2,3,2,3,3,2,2,2,2,2,4,2,2,4,4,4,4,3,2,3,4,3,4,5,4,3,3,3,3,2,4,2,2,2,4,5,4,4,4,3,3,2,3,2,2,2,2,2,2,2,3,2,2,3,3,2,2,2,2,5,2,3,2,3,2,2,1,2,1,2,1,2,1,2,2,2,2,2,5,2,1,1,2,4,4,4,4,4,4,3,4,4,4,5,3,4,3,3,4,2,4,4,4,2,3,5,4,4,4,4,2,4,2,2,2,3,3,4,2,2,3,2,3,5,4,4,2,4,4,2,2,5,2,2,3,4,4,3,2,4,2,2,5,4,4,4,4,4,4,4,2,2,2,2,3,2,4,4,1,2,2,4,2,4,3,2,2,2,3,2,4,4,4,3,2,2,3,1,2
VCU,1996,2,1,1,6,1.6764,70.45454545,3,1,7,0,2,NA,1,2,36.27777778,36.55555556,36.41666667,37.55380249,-77.46029663,97,11.11111111,10:50:27,5,1,2,1,NA,4,4,5,NA,6,3,8,8,2,1,2,8,3,1,8,1,1,NA,2,BPSA,NA,NA,NA,NA,1,NA,NA,NA,NA,2,2,2,3,2,2,2,3,1,2,3,2,2,2,2,4,3,3,2,2,2,3,3,2,5,3,3,3,5,3,5,4,4,5,5,4,4,4,4,4,4,2,3,4,2,4,5,1,2,2,3,2,2,2,3,2,2,1,2,1,1,5,1,3,2,5,2,6,5,5,2,4,2,2,2,2,2,2,2,2,3,4,2,4,5,5,5,5,5,4,5,5,5,5,6,6,5,4,4,2,4,2,4,4,1,2,3,3,2,1,1,1,4,2,1,2,3,2,2,2,2,2,4,5,5,2,1,1,5,5,1,5,5,2,5,5,2,5,3,5,1,1,4,3,3,3,3,4,5,4,4,4,4,4,4,4,5,4,2,2,1,4,4,2,5,1,3,5,4,2,2,4,3,5,1,3,2,1,5
Serbia,1996,2,1,2,7,1.73,54,3,2,0,0,2,NA,1,2,36.25,36.6,36.425,44.81860352,20.46809387,75,4,10:56:04,6,1,2,1,NA,4,4,5,NA,5,3,2,8,1,NA,2,4,1,NA,NA,1,1,NA,1,NA,NA,NA,NA,NA,NA,NA,NA,NA,NA,2,5,5,5,5,2,4,2,5,4,5,4,2,4,4,3,3,4,3,3,3,4,3,3,4,4,2,1,1,1,1,1,1,1,2,3,4,3,4,3,2,1,1,1,1,1,4,3,3,3,8,5,2,1,8,3,1,4,8,2,2,8,4,4,2,5,NA,2,NA,2,2,2,6,3,6,NA,5,NA,2,7,7,6,NA,5,5,4,5,5,3,5,5,4,6,2,2,2,6,6,7,4,5,1,5,3,2,2,2,5,3,1,3,4,3,3,3,2,3,5,1,3,3,3,2,2,5,4,3,3,3,3,3,3,2,2,2,2,2,2,4,4,4,4,4,3,3,3,2,2,1,2,2,2,2,2,2,2,2,2,2,2,3,4,4,3,2,2,2,4,4,2,2,4,4,3,2,4,2,3,3
UCSB,1996,2,1,2,7,1.7018,62.72727273,4,1,0,0,2,NA,1,1,35.94444444,36.94444444,36.44444444,34.4329071,-119.8370972,83,11.11111111,11:19:00,5,1,2,1,NA,4,2,2,1,2,1,8,8,1,NA,2,8,1,NA,NA,8,1,NA,1,NA,NA,NA,NA,NA,NA,NA,NA,NA,NA,5,2,4,5,2,2,2,4,2,2,3,4,4,4,3,5,3,3,4,4,4,4,3,4,5,2,4,3,4,2,4,2,2,2,2,2,4,4,4,3,1,1,1,1,1,1,3,2,2,3,3,4,2,1,3,4,2,2,2,2,2,2,2,2,4,6,5,7,6,5,6,5,4,5,4,6,7,3,5,5,6,5,4,4,5,4,3,5,5,3,5,5,5,2,2,2,5,5,5,2,2,3,2,1,1,2,4,4,3,2,2,2,1,2,3,5,6,2,2,2,2,2,1,4,4,4,4,4,4,4,4,2,2,1,2,4,4,3,1,2,2,2,4,4,5,4,4,3,3,4,3,3,3,3,3,4,5,5,3,5,2,2,2,5,2,2,3,4,5,4,4,2,4,2,2,4,2,2,1
Serbia,1996,1,1,2,7,1.79,60,3,2,2,0,2,NA,1,2,36.4,36.5,36.45,44.81860352,20.46809387,65,8,11:38:22,6,1,2,1,NA,4,4,5,NA,1,NA,3,1,2,1,2,5,1,NA,NA,1,1,NA,1,NA,NA,NA,NA,NA,NA,NA,NA,NA,NA,2,4,1,5,3,3,1,2,2,1,3,2,2,4,4,5,3,3,4,4,5,3,4,3,4,3,5,1,1,1,1,1,1,1,1,2,1,1,1,1,1,1,1,1,1,1,1,1,1,1,1,1,1,1,1,7,1,7,1,1,1,1,1,1,1,1,7,1,7,1,1,1,7,7,7,7,7,7,1,7,7,7,7,5,5,5,5,5,4,4,4,4,5,5,4,4,6,6,5,2,3,1,4,4,2,4,4,2,4,1,2,2,3,4,2,5,5,4,1,4,4,4,1,3,2,4,1,1,1,1,4,5,4,5,1,1,3,5,1,1,1,1,3,1,1,1,1,1,2,3,5,5,2,4,1,1,2,3,1,1,2,4,4,2,4,1,2,5,3,1,1,1,5,4,1,1,1,1,1
Kassel,1996,1,1,1,7,1.77,74,4,2,3,0,2,NA,1,2,36.3,36.6,36.45,49.19999695,10.69999695,84,3,20:08:15,1,1,1,1,NA,4,4,4,2,4,2,5,3,2,1,2,6,1,NA,NA,1,1,NA,2,Rugby,NA,NA,NA,NA,2,NA,NA,NA,NA,4,3,5,4,3,2,1,4,3,3,4,3,5,2,2,2,1,4,3,2,2,4,3,3,4,2,3,2,4,1,4,1,1,1,1,3,4,3,1,3,1,1,1,1,1,1,1,6,5,1,1,4,6,6,5,3,2,5,5,2,5,4,1,5,1,5,4,5,1,2,1,1,2,2,2,2,2,3,1,2,3,2,2,4,4,4,4,2,3,2,4,4,5,5,5,4,6,6,5,2,3,2,2,1,1,2,2,2,2,4,1,1,2,4,1,4,5,4,2,3,4,1,4,2,4,4,2,4,4,5,2,4,3,2,4,5,4,1,1,4,4,4,2,4,3,5,4,4,4,4,3,2,1,3,2,1,1,4,1,5,2,3,4,2,2,2,2,5,5,3,4,4,3,2,1,4,2,4,1
METU,1996,2,1,2,5,1.58,49,4,2,0,0,1,2,1,2,36.3,36.6,36.45,39.91169739,32.84030151,64,6,10:24:44,3,2,2,1,NA,4,4,5,NA,6,5,7,7,2,1,2,8,1,NA,NA,1,1,NA,2,??renci toplulu?u,??renci toplulu?u,NA,NA,NA,4,5,NA,NA,NA,5,5,5,5,5,5,4,3,4,3,5,5,5,3,4,5,3,2,3,3,4,3,3,4,4,2,4,4,4,5,3,4,4,4,3,4,5,3,5,5,5,4,3,3,4,2,5,6,6,6,6,6,6,6,6,6,5,6,5,4,2,1,6,5,4,2,3,6,6,5,2,2,4,3,2,2,2,2,4,6,6,2,4,4,4,4,4,4,4,4,4,4,7,6,7,7,5,4,5,1,3,1,3,2,4,4,2,3,4,3,1,1,3,2,1,4,7,5,1,3,5,2,2,2,3,5,2,4,4,3,5,4,4,1,4,4,3,4,4,5,2,4,4,2,4,4,4,4,4,4,4,4,3,3,3,4,4,3,5,4,1,4,4,3,3,4,2,4,3,5,5,5,2,4,4,5,4,3,5
SMU,1996,2,1,1,7,1.59,48,3,2,1,0,2,NA,1,2,36.7,36.2,36.45,1.293106079,103.8558044,70,26,10:36:12,5,1,2,1,NA,4,4,5,NA,8,1,8,4,2,1,2,8,1,NA,NA,1,1,NA,2,CCA club,Catholic society,NA,NA,NA,4,3,NA,NA,NA,3,3,3,3,3,3,3,4,3,2,3,3,3,3,3,4,3,3,3,3,3,3,3,3,3,3,3,4,4,3,4,4,5,3,5,4,4,4,4,4,4,4,4,4,4,3,4,5,5,3,4,4,3,5,3,2,2,4,2,4,3,3,6,6,3,3,6,3,2,2,3,4,2,2,2,2,2,1,1,2,2,3,3,5,5,5,5,5,5,5,5,5,5,7,6,6,6,6,6,3,4,4,2,4,2,4,4,4,2,4,2,4,2,3,2,3,4,5,2,2,2,2,2,4,5,3,1,3,3,3,4,4,4,2,4,4,4,4,4,4,3,4,4,4,4,4,4,4,4,4,4,3,3,3,2,2,2,4,4,3,4,4,4,4,4,4,3,4,4,4,4,4,4,4,4,4,3,1,3
Poland,1996,2,1,1,7,1.65,52,3,2,NA,0,1,4,1,2,36.5,36.4,36.45,52.25,21,68,0,12:23:48,9,1,2,1,NA,4,4,5,1,3,1,2,4,2,1,2,8,2,1,1,1,1,NA,1,NA,NA,NA,NA,NA,NA,NA,NA,NA,NA,3,4,2,4,4,5,2,2,4,3,3,3,2,3,2,3,3,5,3,4,2,3,3,5,4,2,2,4,5,4,4,4,4,5,3,4,5,4,5,5,5,2,4,4,2,4,5,6,5,2,1,4,7,5,6,6,1,1,1,1,1,1,7,7,1,1,1,7,1,1,1,1,1,1,1,1,1,1,1,7,7,1,1,5,4,4,5,5,4,4,5,5,1,4,3,3,2,2,3,2,1,2,2,3,4,4,1,1,2,2,4,1,1,2,1,3,6,7,4,4,4,4,1,4,1,4,5,4,4,4,3,2,2,1,1,1,4,2,4,1,2,5,1,2,5,5,4,5,5,4,5,5,1,1,1,1,2,3,4,2,2,2,3,2,3,2,1,1,4,5,5,4,1,2,4,4,3,4,4
UCSB,1996,1,1,2,7,1.8288,68.18181818,5,1,0,0,2,NA,1,2,36.72222222,36.22222222,36.47222222,34.4329071,-119.8370972,84,7.222222222,NA,5,1,2,1,NA,4,4,5,NA,8,4,3,3,2,1,2,7,1,NA,NA,1,2,2,1,NA,NA,NA,NA,NA,NA,NA,NA,NA,NA,5,4,4,4,5,5,4,4,2,4,4,5,5,2,4,3,1,1,2,2,3,2,2,3,5,2,3,2,4,3,4,2,3,4,2,4,5,4,5,5,3,2,2,3,5,3,4,4,5,5,4,5,6,5,5,4,2,4,4,5,4,1,4,2,4,4,2,7,3,6,5,2,5,4,2,3,2,2,2,5,6,4,5,5,4,3,4,5,3,3,4,5,7,3,3,2,4,4,4,1,3,1,4,1,2,1,3,2,1,1,2,1,2,3,3,4,5,3,2,2,2,2,2,2,4,4,1,3,3,3,3,4,2,4,3,2,2,3,4,3,3,3,3,2,4,3,2,4,4,4,3,3,3,3,3,1,1,5,5,2,2,3,5,2,4,1,3,4,3,3,3,2,3,4,3,1,3,4,2
METU,1996,2,2,1,5,1.73,55,4,2,4,0,2,NA,1,2,36.3,36.7,36.5,39.91169739,32.84030151,71,8,09:41:37,3,2,2,1,NA,4,4,4,1,5,4,6,6,1,NA,2,8,1,NA,NA,4,2,8,2,ODT? Quidditch toplulu?u,ODT? LGBT? ?al??malar?,NA,NA,NA,7,7,NA,NA,NA,5,5,4,4,4,5,5,2,2,5,5,3,5,2,2,2,1,2,1,1,1,2,1,1,3,1,1,1,1,1,1,2,2,1,1,1,2,2,2,2,2,1,1,1,1,1,1,5,2,2,3,6,3,1,5,5,2,4,2,1,5,2,2,1,1,2,1,2,1,2,1,1,1,1,1,1,2,1,1,2,1,1,2,5,5,5,5,5,4,2,3,1,2,2,2,1,1,2,1,1,1,1,1,1,1,1,1,1,1,1,1,1,1,1,1,5,6,4,2,3,3,4,2,1,4,4,1,2,4,2,4,5,4,4,4,4,2,4,1,4,4,5,2,1,4,5,5,5,4,4,5,4,1,1,1,3,2,5,2,3,2,2,3,5,1,4,2,4,2,5,5,4,1,4,5,2,4,2,3
Oslo,1996,2,4,2,4,1.71,63,4,2,29,0,2,NA,1,2,36.5,36.5,36.5,59.91270447,10.74609375,69,-4,11:00:12,4,1,2,1,NA,4,2,5,NA,2,1,8,6,1,NA,1,NA,1,NA,NA,2,1,NA,2,Cosplay Gruppe,Insomnia,NA,NA,NA,7,0,0,0,0,3,3,2,4,4,3,1,4,1,3,3,4,4,3,2,2,2,3,1,3,3,2,2,1,4,3,3,3,1,1,2,2,1,2,1,4,4,3,4,4,3,1,1,2,1,3,4,5,2,2,5,6,2,1,4,3,2,2,3,3,1,2,3,3,4,2,2,3,2,1,1,2,2,2,2,4,2,3,1,4,4,1,2,3,3,3,5,5,3,2,2,2,6,6,5,4,4,3,4,3,3,3,4,2,2,2,3,2,2,1,2,2,3,4,2,3,4,4,1,1,4,3,4,4,2,4,2,1,5,3,2,4,4,1,2,3,4,2,4,3,3,4,1,1,3,5,4,4,2,4,4,2,2,3,2,1,1,4,1,3,1,3,3,4,5,4,5,3,3,4,4,5,2,3,4,5,3,2,2
UCSB,1996,1,1,2,7,1.8034,70.45454545,3,1,0,0,2,NA,1,2,36.44444444,36.55555556,36.5,34.4329071,-119.8370972,84,7.222222222,NA,5,1,2,1,NA,4,2,5,NA,8,1,6,5,1,NA,2,8,1,NA,NA,8,2,8,2,CKI,N/A,N/A,N/A,N/A,7,0,0,0,0,4,3,4,2,5,4,3,3,2,3,4,3,4,4,4,4,3,3,3,3,3,3,3,4,5,2,4,1,5,2,4,2,1,3,1,1,5,3,4,3,1,1,1,1,2,1,5,4,4,4,5,4,4,4,4,4,4,6,4,4,4,5,4,4,4,4,4,7,4,4,4,4,4,4,4,4,4,4,4,4,4,4,4,2,4,3,3,3,2,1,3,2,4,6,5,4,5,5,4,4,5,3,5,3,1,5,3,3,4,4,3,2,1,2,3,5,6,6,6,5,5,5,3,4,5,2,1,1,3,3,3,5,4,2,5,5,2,3,2,1,1,3,5,5,5,1,4,3,3,3,3,2,3,4,3,1,2,4,3,2,2,4,4,1,2,1,4,4,5,1,1,4,4,3,1,3,1,3,1
Serbia,1996,2,1,2,7,1.68,55,4,2,1,0,2,NA,1,2,36.5,36.5,36.5,44.81860352,20.46809387,45,12,11:50:09,6,1,2,1,NA,4,4,5,NA,2,1,3,3,1,NA,2,8,1,NA,NA,2,1,NA,2,Klub studenata pedagogije,NA,NA,NA,NA,7,NA,NA,NA,NA,3,3,3,5,4,4,1,1,3,3,4,4,3,2,2,3,2,2,3,3,4,3,3,2,5,2,2,2,2,2,3,2,2,3,1,4,4,3,2,3,2,1,1,2,1,1,2,3,3,3,4,8,4,5,5,3,3,3,2,2,2,3,5,5,2,3,NA,8,NA,4,4,4,4,4,3,NA,6,5,4,6,6,4,5,5,4,5,5,4,4,3,4,3,3,3,2,2,4,3,3,3,3,1,3,4,1,2,3,3,1,2,2,2,2,3,1,5,5,4,2,3,2,3,1,3,2,4,2,4,3,3,4,4,2,4,3,3,3,2,5,3,4,4,4,4,4,4,3,3,3,2,4,4,2,2,3,4,4,3,2,2,2,3,3,3,4,2,2,4,4,2,4,4,3,5,3,4,4,2,4
Oslo,1996,2,1,1,7,1.7,63,2,2,NA,NA,2,NA,1,2,36.3,36.7,36.5,59.91270447,10.74609375,87,-3,09:43:02,4,1,5,1,NA,4,4,4,1,6,3,5,5,1,NA,2,8,3,1,1,1,1,NA,1,NA,NA,NA,NA,NA,NA,NA,NA,NA,NA,5,4,4,4,4,2,3,5,3,4,4,4,3,4,3,4,3,4,2,3,4,3,3,3,4,3,3,2,2,2,2,2,2,2,3,4,4,4,4,3,3,2,1,1,2,2,3,3,5,2,7,4,4,3,3,5,2,4,3,1,5,5,5,6,2,2,2,3,3,3,3,3,3,4,3,4,2,3,3,4,3,3,5,5,5,5,5,5,5,3,5,5,5,6,4,3,4,4,4,3,3,3,3,3,3,3,3,2,3,3,3,3,2,3,3,5,5,4,4,3,5,4,2,2,3,3,3,2,2,2,2,2,3,2,2,4,4,2,3,3,2,2,3,3,4,3,4,4,4,4,4,4,2,2,2,2,2,2,2,2,2,2,2,4,2,3,2,4,4,4,3,4,2,4,3,4,3,4,2
Serbia,1996,2,1,1,7,1.75,64,3,2,14,0,2,NA,1,2,36.3,36.7,36.5,44.81860352,20.46809387,55,-2,09:50:40,6,1,2,1,NA,4,4,5,NA,6,4,6,6,1,NA,2,6,1,NA,NA,1,1,NA,1,NA,NA,NA,NA,NA,NA,NA,NA,NA,NA,3,4,3,3,2,4,3,3,4,2,4,3,3,3,3,3,3,3,3,3,3,4,3,4,4,2,3,2,3,2,2,2,2,3,2,3,4,3,3,3,2,1,2,1,1,2,3,5,5,2,8,8,5,5,5,5,2,3,2,3,2,4,5,5,2,3,4,8,3,5,2,4,5,4,5,4,6,5,3,6,6,NA,4,5,5,4,5,5,5,5,5,5,6,7,6,6,7,6,6,3,3,2,3,3,2,3,2,2,3,4,2,3,2,3,3,4,4,5,2,3,4,4,1,2,1,5,4,4,4,4,3,3,2,3,2,2,3,3,4,4,4,4,4,3,4,4,2,2,1,2,2,3,2,3,2,2,3,3,3,2,4,2,3,2,4,3,2,4,4,4,4,3,3,4,2,2,3,2,1
Kassel,1996,2,1,1,7,1.65,56,2,2,0,0,2,NA,1,2,36.3,36.7,36.5,53.10940552,8.781402588,NA,NA,10:35:34,1,1,2,1,NA,4,4,4,1,3,2,6,6,2,1,2,8,1,NA,NA,1,1,NA,1,NA,NA,NA,NA,NA,NA,NA,NA,NA,NA,3,3,5,5,2,4,2,4,2,4,5,5,4,3,3,4,3,2,4,2,2,3,2,2,4,2,3,3,3,2,3,3,2,2,2,2,3,3,3,4,1,1,1,1,1,1,3,2,4,1,1,2,5,1,2,3,2,7,1,1,1,4,1,4,1,2,2,4,5,6,4,5,3,2,3,3,1,4,1,3,4,5,2,4,4,4,4,4,3,2,4,4,4,4,4,3,3,3,2,2,1,1,2,2,2,2,2,1,1,4,2,2,2,1,4,4,8,7,5,5,5,5,3,3,2,5,5,2,2,2,2,3,3,1,2,5,3,5,3,3,2,5,3,5,4,4,4,4,4,3,3,3,1,1,1,3,3,2,5,1,3,2,5,4,1,1,1,4,4,5,5,5,5,3,5,4,3,5,1
Serbia,1996,2,1,2,7,1.66,55,4,2,2,0,2,NA,1,2,36.5,36.5,36.5,44.81860352,20.46809387,36,12,11:06:24,6,1,2,1,NA,4,4,5,NA,3,2,7,7,1,NA,2,8,1,NA,NA,1,1,NA,1,NA,NA,NA,NA,NA,NA,NA,NA,NA,NA,3,2,1,4,2,2,2,2,2,3,3,2,2,3,3,4,3,3,3,3,4,3,3,2,5,2,3,3,3,3,4,2,3,2,2,3,4,3,4,2,4,3,3,4,2,2,4,5,3,2,2,4,5,4,3,3,2,4,2,3,2,2,3,2,2,2,1,4,1,3,3,2,5,NA,NA,1,NA,NA,2,4,4,NA,NA,4,3,4,4,4,4,3,3,3,7,5,5,5,6,6,6,4,2,2,4,4,4,5,2,2,4,4,1,3,2,3,3,3,3,6,2,4,5,5,2,4,3,4,3,2,3,3,3,4,4,4,2,2,4,3,4,4,4,4,3,3,3,3,2,2,2,3,4,4,2,4,2,2,5,4,4,4,3,2,3,4,4,2,2,4,4,3,3,4,3,5,3,4,3,1,4
Tsinghua,1996,1,1,2,6,1.68,72,3,2,0,0,2,0,1,2,36.6,36.4,36.5,30.58009338,114.273407,72,14,10:28:37,7,3,2,1,0,4,4,5,0,8,5,4,3,1,1,1,8,1,1,1,4,2,1,1,ÉçÍÅÁªºÏ»á,°à¼¶,ÇàÄê´«Ã½ÖÐÐÄ,NA,NA,NA,NA,NA,NA,NA,4,4,4,4,4,4,2,3,2,4,4,4,4,1,2,2,2,2,2,2,1,2,2,1,4,2,1,3,2,2,4,3,3,4,4,2,4,2,4,2,2,2,2,2,2,2,2,5,2,2,2,5,2,2,4,2,2,2,2,4,4,4,2,5,2,6,2,2,1,2,2,2,3,2,3,3,4,2,2,2,3,2,2,4,4,4,4,4,4,4,4,4,7,2,2,5,5,5,5,1,1,1,2,2,1,2,2,3,1,2,1,2,2,2,2,3,3,3,2,2,2,2,2,2,4,4,2,3,3,3,3,4,2,5,3,4,3,3,2,3,4,4,2,2,4,4,4,4,4,4,4,4,2,2,2,4,4,5,4,4,2,4,3,4,3,2,2,3,4,4,3,4,4,4,3,4,4,3,1
Serbia,1996,2,1,2,7,1.77,80,4,2,1,0,2,NA,1,2,36.3,36.7,36.5,44.77920532,20.4539032,53,6,10:30:15,6,1,2,1,NA,4,4,5,NA,8,8,8,8,1,NA,2,8,1,NA,NA,1,2,7,2,Klub studenata pedagogije,NA,NA,NA,NA,7,NA,NA,NA,NA,4,2,2,4,3,4,2,2,4,4,2,4,4,3,3,3,2,2,2,3,3,3,2,3,5,2,2,3,4,4,4,4,2,2,2,4,4,4,4,3,2,2,4,2,4,2,4,3,3,3,5,5,5,2,8,3,2,5,2,2,5,2,2,8,1,2,NA,8,NA,2,2,2,NA,NA,3,NA,3,3,2,6,6,NA,NA,4,3,4,4,4,4,2,3,2,6,6,6,6,5,5,5,3,2,1,3,2,2,4,2,2,2,2,2,2,2,2,1,4,4,5,1,2,3,4,3,4,4,4,1,2,4,2,2,5,2,2,3,2,4,2,5,4,5,4,4,5,3,3,2,2,4,4,4,2,3,2,2,4,5,2,4,3,1,2,1,5,2,4,2,4,4,2,3,5,1,4,4,2,2,3,5
Poland,1996,2,1,1,7,1.55,56,4,2,5,0,2,NA,1,2,36.6,36.4,36.5,52.25,21,55,-3,10:44:08,9,1,2,1,NA,4,4,4,2,3,3,5,5,2,1,2,8,2,1,1,1,1,NA,2,Plan biznesowy,NA,NA,NA,NA,3,NA,NA,NA,NA,3,2,2,3,4,3,1,4,2,3,3,2,2,4,4,5,3,2,3,3,4,2,4,4,4,3,4,3,3,2,3,4,4,3,4,4,4,4,4,4,4,2,2,2,3,3,4,3,4,1,2,7,5,6,2,2,2,4,2,3,4,2,5,5,2,6,2,2,1,2,2,3,2,1,1,1,4,3,4,2,1,2,2,3,3,3,3,3,3,3,4,4,3,5,4,4,3,3,3,4,3,3,3,4,4,4,3,4,3,4,2,4,1,2,2,4,3,5,3,2,6,5,4,4,3,4,3,2,2,3,4,4,3,2,3,3,4,3,4,4,3,4,3,4,4,4,3,5,3,2,4,2,2,4,3,2,3,3,3,3,2,3,3,4,4,3,2,3,3,4,4,4,3,4,5,3,4,3,4
Serbia,1996,1,1,1,6,1.82,74,3,2,3,0,1,10,1,2,36.5,36.5,36.5,44.81860352,20.46809387,56,6,14:18:49,6,1,2,1,NA,4,3,5,NA,1,NA,7,5,2,1,2,8,1,NA,NA,4,1,NA,1,NA,NA,NA,NA,NA,NA,NA,NA,NA,NA,2,1,1,2,1,5,5,1,1,3,3,2,4,3,4,3,3,3,2,3,3,3,3,4,5,3,3,4,5,4,4,4,2,5,3,5,3,3,4,4,4,4,4,4,2,3,4,8,5,8,5,8,8,4,8,5,4,6,4,7,8,7,8,5,4,7,NA,7,4,4,8,8,3,3,5,4,6,4,4,7,6,NA,3,5,4,4,4,3,5,4,5,5,5,6,6,6,6,5,5,3,2,1,2,3,2,2,1,1,1,2,1,1,1,3,2,4,4,6,1,3,4,4,1,4,1,4,1,4,3,5,4,4,5,2,2,2,4,2,3,4,4,4,1,5,4,3,3,4,2,1,5,5,1,2,2,3,4,5,2,5,1,2,4,2,4,3,1,5,5,2,2,2,4,3,3,3,4,4,4
SMU,1996,2,3,1,6,1.58,51,4,2,0,0,2,NA,1,2,36.6,36.4,36.5,1.293106079,103.8558044,70,26,10:21:47,5,1,2,1,NA,2,2,5,NA,1,NA,8,1,2,1,2,8,1,NA,NA,3,1,NA,1,NA,NA,NA,NA,NA,NA,NA,NA,NA,NA,2,2,2,1,4,2,1,1,1,1,2,1,1,4,4,4,4,2,2,2,2,5,4,5,4,2,4,5,5,1,5,4,5,5,5,5,2,5,5,1,4,5,5,5,3,5,5,6,7,6,6,7,7,5,6,6,7,6,4,5,5,7,5,7,7,7,6,7,2,7,6,1,5,3,6,7,6,3,1,6,3,1,2,4,2,3,4,3,3,3,3,3,2,5,6,6,7,3,4,5,5,3,4,5,5,5,5,3,5,5,4,5,1,5,2,3,2,7,2,2,2,2,1,5,5,3,2,5,5,5,5,5,4,1,1,5,5,4,1,3,5,5,5,3,5,5,5,4,1,4,2,2,4,4,5,2,2,3,2,5,4,4,2,4,2,4,3,3,3,3,2,3,4,3,3,3,4,2,3
Oslo,1996,2,1,2,7,1.6,65,4,2,NA,NA,2,NA,1,2,36.48,36.56,36.52,59.91270447,10.74609375,98,3,10:09:13,4,1,2,1,NA,4,4,5,NA,3,1,6,6,2,1,2,8,3,1,2,4,1,NA,1,NA,NA,NA,NA,NA,NA,NA,NA,NA,NA,4,4,3,5,3,4,2,5,4,3,4,5,4,3,3,3,2,2,2,3,4,2,2,3,4,2,2,3,4,4,3,4,2,4,4,4,4,4,5,4,4,2,4,4,1,2,4,6,6,6,7,7,6,7,7,6,5,6,6,6,6,7,6,7,2,5,3,7,3,3,3,3,5,3,3,3,5,3,3,3,3,1,5,5,4,4,4,4,4,2,4,3,6,7,6,7,6,6,6,4,2,2,4,2,2,2,2,2,2,2,1,2,1,2,1,5,4,5,3,2,3,3,1,2,2,5,4,5,2,2,4,4,2,1,1,2,2,2,4,5,4,4,2,2,4,5,5,4,2,5,4,2,2,4,1,4,5,5,2,1,2,4,5,2,4,5,1,4,4,4,5,3,1,3,5,2,3,1,2
Poland,1996,2,1,1,6,1.67,53,4,2,10,0,2,NA,1,2,36.59,36.48,36.535,52.25,21,55,-3,10:20:01,9,1,2,1,NA,4,2,5,1,4,1,3,2,2,4,2,6,2,1,1,1,1,NA,1,NA,NA,NA,NA,NA,NA,NA,NA,NA,NA,3,4,3,3,3,4,2,2,3,3,4,3,4,3,3,3,4,4,3,3,3,4,3,3,5,3,4,4,2,2,2,2,2,2,4,5,5,2,5,4,5,3,4,2,4,3,3,5,3,5,5,5,6,4,5,4,5,3,6,4,5,2,6,4,3,2,1,3,1,1,3,5,2,2,1,3,2,1,5,5,3,3,3,5,4,4,4,4,3,3,3,3,4,7,7,5,4,4,4,2,2,3,1,2,2,3,2,2,3,2,3,2,2,3,2,4,7,6,5,6,2,1,2,4,2,5,5,4,2,4,2,4,2,2,2,4,2,2,3,4,3,4,4,5,4,5,5,5,4,3,5,4,2,3,3,3,5,4,3,3,4,2,3,4,4,3,3,2,2,4,4,3,3,4,5,2,4,4,4
Serbia,1996,2,1,2,7,1.7,62,2,2,20,0,2,NA,1,2,36.6,36.5,36.55,44,21,83,4,10:07:12,6,1,2,1,NA,4,2,5,NA,4,4,4,3,1,NA,2,8,1,NA,NA,1,2,4,1,NA,NA,NA,NA,NA,NA,NA,NA,NA,NA,4,2,4,3,4,3,2,3,3,3,3,3,4,3,4,5,1,3,3,4,3,3,4,4,4,2,4,2,2,2,2,2,2,2,2,2,4,3,4,2,4,2,2,2,2,2,4,5,5,4,8,5,5,3,4,5,4,5,4,3,5,5,5,8,4,3,4,4,NA,4,5,4,4,6,4,3,4,5,4,6,6,4,4,5,4,4,3,4,4,2,4,4,5,7,5,4,6,5,6,4,4,3,5,4,4,4,5,4,5,3,3,3,3,2,3,3,6,5,3,5,4,5,1,4,4,2,1,5,2,3,3,5,4,4,1,2,4,4,4,3,3,3,2,4,3,2,2,1,1,3,4,4,3,5,2,2,1,4,4,4,1,2,3,3,4,1,1,5,5,1,2,4,4,5,3,4,4,1,4
METU,1996,1,1,2,6,1.9,80,5,2,NA,NA,2,NA,1,2,36.6,36.5,36.55,39.91169739,32.84030151,64,2,09:34:47,3,2,2,1,NA,4,4,5,NA,8,8,8,8,2,1,2,8,1,NA,NA,1,1,NA,2,Discord,NA,NA,NA,NA,3,NA,NA,NA,NA,5,4,3,5,2,4,5,3,4,5,4,3,4,2,2,2,2,2,2,2,2,2,1,1,3,2,1,2,2,4,2,2,1,2,1,3,2,2,2,1,2,1,1,1,3,2,2,6,3,2,2,6,2,3,2,5,2,5,2,4,6,2,5,1,2,2,5,2,2,3,2,2,2,2,5,2,6,3,2,3,2,2,3,5,5,5,5,5,5,5,5,5,3,6,6,6,4,4,5,2,2,2,2,2,2,2,2,3,2,2,2,1,4,4,1,4,3,2,1,2,3,1,4,3,4,4,4,2,4,3,3,3,2,2,4,4,1,4,4,5,4,4,4,2,3,4,4,5,5,3,3,4,1,1,1,2,3,5,2,2,2,4,3,4,4,3,2,5,2,2,2,4,4,3,2,4,2,1,2
Serbia,1996,2,1,2,6,1.71,60.5,3,2,4,0,2,NA,1,2,36.5,36.6,36.55,44.81860352,20.46809387,65,8,10:48:58,6,1,2,1,NA,3,3,5,NA,4,4,4,4,1,NA,2,5,1,NA,NA,3,1,NA,1,NA,NA,NA,NA,NA,NA,NA,NA,NA,NA,2,4,3,5,2,3,3,3,2,3,1,3,2,3,3,4,2,2,4,3,4,4,3,3,4,2,3,3,3,3,2,2,1,4,2,4,3,4,3,4,3,2,3,2,1,3,3,4,2,4,5,4,8,2,5,3,2,NA,2,8,2,2,4,4,2,5,NA,7,NA,5,3,3,NA,NA,6,4,5,6,5,6,6,3,3,4,4,3,4,5,5,4,5,5,6,5,4,4,5,6,6,5,4,2,4,3,3,4,5,3,4,2,2,3,2,3,2,4,4,6,3,4,4,4,1,1,2,5,4,3,4,3,3,2,2,3,3,3,2,2,4,5,4,4,3,3,3,3,2,2,1,2,2,4,2,3,2,1,3,4,2,2,3,3,2,4,4,3,2,2,4,4,3,4,2,3,3,2,2,3,1
Serbia,1996,2,1,1,7,1.64,53,4,2,5,0,1,8,1,2,36.5,36.6,36.55,44.77920532,20.4539032,53,6,21:14:52,6,1,2,1,NA,4,4,4,4,4,4,6,6,2,1,2,8,1,NA,NA,8,1,NA,1,NA,NA,NA,NA,NA,NA,NA,NA,NA,NA,4,3,3,4,4,2,4,3,3,4,3,3,4,3,3,3,2,3,2,2,3,3,3,3,4,2,3,3,4,3,3,4,4,2,3,4,4,4,3,4,3,3,4,3,2,2,3,2,2,2,3,3,2,2,3,NA,2,NA,2,2,3,2,4,2,2,2,1,1,NA,2,2,2,4,3,NA,NA,NA,NA,2,6,7,NA,NA,5,4,4,5,4,4,3,3,3,2,2,2,1,2,2,2,3,2,2,2,3,3,2,2,2,2,2,2,2,2,2,3,3,4,4,2,3,4,4,2,4,3,3,2,3,3,3,3,4,3,2,3,3,2,2,4,4,4,4,4,3,3,3,1,1,2,4,4,4,4,2,2,3,4,4,4,2,2,3,3,4,4,3,2,4,4,4,4,4,3,4,3,3,2,3,2
Tsinghua,1996,1,1,2,4,1.75,58.5,3,2,28,0,2,0,1,2,36.5,36.6,36.55,30.58009338,114.273407,64,12,11:10:26,7,3,2,1,0,4,4,5,0,6,3,5,5,1,1,2,3,1,1,1,1,2,1,1,Ñ§Ï°·Ö×é,NA,NA,NA,NA,3,NA,NA,NA,NA,3,4,2,4,2,4,1,3,4,4,4,2,5,2,2,2,2,2,2,4,2,2,2,2,5,2,3,3,4,4,4,2,2,3,4,4,2,2,2,3,2,2,3,2,1,2,2,6,3,6,5,5,5,5,6,5,5,4,5,5,6,3,5,5,3,6,1,3,2,2,2,5,2,2,2,1,5,1,3,2,3,2,2,4,4,5,4,4,4,4,3,4,5,3,3,5,5,6,6,1,3,3,2,2,4,4,2,4,2,2,1,4,2,2,2,3,4,5,4,4,4,5,3,3,3,4,3,3,3,3,3,4,2,1,3,3,3,3,3,4,3,2,3,4,4,3,3,4,3,3,4,3,2,4,3,2,4,4,4,4,2,3,4,3,4,3,3,4,3,3,3,4,2,4,3,4,4,2,3
METU,1996,1,1,2,7,1.92,85,3,2,15,0,1,18,1,2,36.7,36.4,36.55,39.91169739,32.84030151,70,3,10:29:24,3,2,2,1,NA,4,4,5,NA,2,1,6,5,1,NA,2,3,1,NA,NA,1,1,NA,1,NA,NA,NA,NA,NA,NA,NA,NA,NA,NA,3,2,2,3,2,3,4,3,1,1,4,2,4,3,4,3,2,3,3,4,4,2,4,3,4,4,3,5,4,4,4,3,2,3,3,4,3,4,3,3,4,2,2,1,2,3,4,6,5,6,6,7,7,6,7,6,5,6,5,4,2,2,6,2,2,4,3,6,4,7,4,4,5,4,3,4,3,2,6,2,2,2,4,4,2,4,4,3,2,1,2,3,4,6,5,6,6,5,4,4,5,4,4,4,4,4,4,2,5,2,2,2,3,4,3,4,6,3,3,2,2,3,2,2,5,5,2,3,3,2,2,5,4,1,3,4,2,4,4,4,2,4,4,5,2,4,4,4,2,3,4,2,2,4,2,2,2,2,1,5,2,3,2,4,4,2,3,4,4,3,3,2,2,5,4,4,2,2,3
Serbia,1996,2,1,1,7,1.72,60,2,1,0,0,2,NA,1,2,36.5,36.6,36.55,43.92750549,21.36999512,63,1,10:03:56,6,1,2,1,NA,4,2,1,NA,3,2,8,7,1,NA,2,7,1,NA,NA,1,1,NA,1,NA,NA,NA,NA,NA,NA,NA,NA,NA,NA,4,1,3,3,4,3,2,3,4,1,4,2,4,4,5,5,5,4,5,3,5,4,4,4,5,3,5,3,4,2,4,5,5,2,5,4,5,5,1,5,4,2,1,2,1,3,5,7,1,2,7,8,7,7,8,3,4,5,3,4,2,8,1,7,1,1,1,2,1,2,1,2,5,NA,1,1,1,NA,1,6,6,1,NA,5,4,5,4,5,5,4,5,5,7,7,7,7,7,7,7,5,4,2,5,5,4,4,2,3,5,5,4,1,1,1,1,5,7,6,6,6,6,5,1,4,4,2,1,5,5,4,5,5,4,3,1,1,5,3,3,5,4,2,2,1,3,4,4,4,4,4,4,4,4,5,4,4,1,3,4,3,1,4,3,5,4,2,1,5,4,5,5,5,2,5,5,2,4,1,5
Poland,1996,2,1,2,5,1.7,60,4,2,7,6,2,NA,1,2,36.4,36.7,36.55,50.76669312,16.28329468,72,0,10:07:34,9,1,2,1,NA,4,2,5,1,8,3,3,3,1,NA,2,8,3,1,8,3,2,1,1,NA,NA,NA,NA,NA,NA,NA,NA,NA,NA,2,3,4,5,5,5,1,2,2,1,3,3,4,5,3,3,3,4,3,3,3,1,4,4,3,5,1,3,4,3,3,3,5,5,4,4,4,3,3,3,3,4,3,3,2,3,2,6,7,6,7,6,7,5,7,7,5,3,1,1,1,7,7,7,1,1,7,7,2,6,7,3,7,2,7,7,7,6,3,7,7,7,7,5,5,5,5,5,5,5,5,5,7,7,7,7,7,7,7,3,1,1,1,1,3,3,1,1,2,1,2,1,1,1,1,5,8,7,6,8,8,8,1,5,4,4,3,5,5,5,5,5,3,1,1,1,3,2,2,1,5,5,5,4,1,4,4,3,5,4,4,5,4,1,5,2,1,5,1,5,1,1,5,5,2,1,1,4,5,4,4,4,3,4,4,4,4,4,4
Tsinghua,1996,1,1,2,7,1.65,60,2,2,2,0,2,0,1,2,36.6,36.5,36.55,30.58009338,114.273407,72,14,10:28:05,7,3,2,1,0,4,4,5,0,4,4,3,3,1,1,1,5,3,1,2,1,2,1,1,Ñ§Éú»á,NA,NA,NA,NA,5,NA,NA,NA,NA,3,3,4,5,5,4,2,4,4,4,4,3,3,2,3,3,2,2,2,2,2,3,3,3,4,2,4,4,4,3,4,5,4,5,4,3,2,4,3,4,2,2,4,2,2,3,4,3,2,3,5,7,3,2,2,4,3,3,2,4,5,4,4,5,2,5,2,3,3,2,3,2,3,2,2,2,5,2,2,2,2,3,4,4,5,4,4,5,5,4,4,4,3,2,3,6,5,4,5,2,4,4,3,2,3,4,3,3,3,3,3,2,2,4,3,3,3,4,2,2,2,2,2,3,2,4,2,4,2,3,5,4,2,1,3,4,4,2,4,4,4,3,2,4,4,4,4,5,4,3,4,3,2,3,2,4,3,4,4,2,2,4,2,4,3,2,2,4,2,4,3,2,1,3,2,3,4,3,3
METU,1996,2,3,2,6,1.64,54,4,1,3,0,1,5,1,2,36.7,36.4,36.55,39.91169739,32.84030151,64,6,11:04:47,3,2,3,1,NA,4,2,5,NA,4,1,8,8,1,NA,2,8,1,NA,NA,1,1,NA,1,NA,NA,NA,NA,NA,NA,NA,NA,NA,NA,3,3,3,5,2,2,4,1,3,3,1,3,4,3,3,3,3,3,2,3,2,3,4,4,4,4,3,5,5,5,5,4,5,5,3,5,5,4,5,5,4,4,2,5,3,4,5,5,3,4,5,4,3,5,5,5,4,5,2,5,4,2,5,5,2,4,5,5,5,6,5,5,5,6,3,3,5,4,5,5,5,2,5,4,4,4,3,3,4,3,2,2,6,6,6,7,7,5,4,4,4,3,4,3,4,2,4,3,4,4,2,2,2,3,1,4,3,5,2,3,4,3,2,2,4,5,2,3,3,4,3,5,5,2,5,5,4,4,3,4,4,4,4,3,4,4,4,5,3,3,4,2,1,4,2,2,4,4,2,2,2,2,2,4,2,4,3,3,4,4,4,4,3,4,4,3,4,1,4
UCSB,1996,2,1,2,5,1.7018,68.18181818,3,1,2,4,2,NA,1,2,36.61111111,36.5,36.55555556,34.50210571,-120.1287003,84,7.222222222,NA,5,1,2,1,NA,4,2,5,NA,4,2,6,6,1,NA,2,5,1,NA,NA,1,1,NA,2,Support After Intimate Partner Abuse,n/a,n/a,n/a,n/a,6,0,0,0,0,2,1,3,4,2,2,2,1,2,2,2,3,4,3,2,4,2,4,4,2,4,2,4,4,5,4,4,2,4,1,4,2,1,2,4,4,4,4,4,4,4,1,2,2,2,3,4,3,2,2,2,4,2,3,2,5,2,2,2,2,2,2,2,2,1,3,3,4,5,2,2,3,3,6,3,2,5,3,3,5,5,3,3,5,5,4,5,5,5,3,3,4,6,6,5,6,5,5,5,4,4,1,4,4,2,4,4,4,4,3,3,1,2,4,3,3,2,2,2,2,4,2,4,2,2,4,1,2,2,4,4,5,2,2,4,5,4,4,2,2,1,3,4,4,4,2,3,3,3,4,2,2,2,2,2,1,3,4,2,2,2,4,4,2,4,2,4,4,4,2,2,4,2,2,2,4,2,2,4
UCSB,1996,1,1,2,1,1.5494,77.27272727,5,1,2,0,1,0,1,2,36.44444444,36.66666667,36.55555556,34.4329071,-119.8370972,55,10.55555556,11:32:00,5,1,2,1,NA,4,2,5,NA,4,2,4,4,1,NA,2,8,1,NA,NA,1,1,NA,1,NA,NA,NA,NA,NA,NA,NA,NA,NA,NA,1,1,2,3,2,2,1,1,2,3,2,1,2,2,2,2,2,4,2,2,2,2,3,1,4,2,2,4,5,4,5,4,4,5,4,3,5,4,2,4,1,1,4,2,2,3,2,5,3,2,4,3,6,2,3,2,2,3,1,2,1,1,2,2,1,3,1,5,2,6,3,5,3,3,2,2,3,2,2,3,3,2,1,5,5,4,5,5,5,2,4,4,3,7,6,5,6,5,2,1,3,1,2,1,2,3,3,4,1,2,2,2,1,5,4,2,2,5,2,2,3,3,4,5,5,3,1,1,5,5,1,5,4,2,5,4,2,4,4,5,2,2,4,3,5,4,3,4,3,4,5,4,2,1,2,2,4,4,5,5,4,5,3,4,4,1,4,4,4,1,1,3,4,5,2,4,1,1,3
Tsinghua,1996,1,1,2,6,1.68,58,3,2,14,0,2,0,1,2,36.65,36.5,36.575,30.58009338,114.273407,74,16,11:06:12,7,3,2,1,0,2,1,5,0,1,0,5,3,1,1,2,8,1,1,1,3,2,1,1,Ñ§Éú»á,NA,NA,NA,NA,1,NA,NA,NA,NA,1,3,2,2,2,4,2,2,2,1,2,2,2,4,4,3,2,3,2,4,3,3,4,2,3,4,3,4,5,2,5,5,4,4,4,5,4,5,5,5,4,4,3,5,3,4,4,4,4,4,4,4,5,4,4,4,4,2,4,4,6,5,4,5,4,4,4,4,4,4,4,4,4,4,4,4,4,4,4,4,4,4,4,3,3,3,2,4,3,4,3,3,6,2,2,7,6,7,7,4,4,5,4,4,5,5,5,2,4,5,1,4,1,3,2,3,3,2,2,2,1,1,2,2,4,4,2,2,2,2,3,5,3,2,4,5,3,4,4,2,1,1,4,5,1,1,1,2,2,2,2,2,4,4,5,4,3,5,4,4,2,4,3,5,4,1,1,3,3,1,5,4,3,3,2,3,3,1,3
UCSB,1996,2,1,2,7,1.7272,81.81818182,3,1,2,0,2,NA,1,2,36.72222222,36.44444444,36.58333333,33.65789795,-116.2700043,65,20.55555556,NA,5,1,2,1,NA,4,4,5,NA,2,2,1,1,1,NA,2,1,3,1,1,1,1,NA,1,NA,NA,NA,NA,NA,NA,NA,NA,NA,NA,4,2,3,4,4,4,2,3,2,2,3,3,4,4,3,3,3,3,3,3,2,3,3,2,4,3,3,3,4,2,4,2,2,2,4,3,4,3,4,4,4,2,2,2,3,3,4,4,4,4,4,4,4,4,4,4,4,4,4,4,4,4,4,4,4,4,4,4,4,4,4,4,4,4,4,4,4,4,4,4,4,4,4,5,5,5,5,5,5,5,5,5,4,3,3,3,4,4,4,4,4,3,4,4,4,4,4,4,4,4,2,2,3,2,3,4,5,5,5,5,5,5,2,3,2,4,2,5,3,3,4,4,3,1,2,2,4,2,3,4,1,3,4,4,3,4,4,3,4,3,3,4,3,4,3,1,2,4,2,2,2,4,4,3,4,4,1,3,4,2,2,3,3,4,2,4,3,2,4
VCU,1996,2,1,2,4,1.5748,59.09090909,4,2,5,0,2,NA,1,2,36.61111111,36.55555556,36.58333333,37.55380249,-77.46029663,80,15,10:13:49,5,1,2,1,NA,4,1,5,NA,5,1,5,5,1,NA,2,8,3,1,8,6,2,8,2,student ambassadors,orientation staff,psych lab,NA,NA,7,7,7,NA,NA,3,5,5,4,4,4,5,3,4,3,5,5,4,2,3,4,2,2,2,2,2,2,2,3,5,2,2,4,4,3,4,4,2,2,4,4,5,5,2,5,4,2,3,3,5,2,4,4,5,4,7,4,6,4,5,4,3,5,5,4,5,5,4,2,3,5,4,7,4,5,4,2,4,4,5,5,5,3,3,7,7,4,4,4,3,4,4,3,2,4,4,4,4,5,3,5,2,3,3,2,2,1,2,2,2,3,2,4,2,2,1,2,4,4,3,3,4,1,1,2,3,2,2,2,2,4,3,4,2,3,4,4,2,1,1,3,3,2,5,4,4,3,4,5,4,5,4,4,3,2,3,3,2,4,3,2,5,4,3,2,2,2,4,3,2,5,2,2,4,4,4,3,4,5,2,2,4,2,2
Poland,1996,2,1,1,7,1.56,43,4,1,NA,NA,2,NA,1,2,36.6,36.6,36.6,52.23330688,21.01669312,83,2,10:35:30,9,1,2,1,NA,4,4,5,1,8,4,4,3,2,5,2,8,6,1,8,2,1,NA,1,NA,NA,NA,NA,NA,NA,NA,NA,NA,NA,5,4,4,4,3,4,3,4,3,4,5,4,4,2,3,3,5,4,4,4,2,4,3,3,5,5,2,2,2,1,2,1,1,1,1,3,4,4,4,3,4,1,1,1,1,2,4,6,2,3,5,5,4,5,2,3,2,6,3,2,2,1,5,2,2,1,1,6,1,1,2,1,2,2,1,2,1,2,2,6,6,2,3,5,5,5,5,5,5,4,5,4,4,4,4,4,4,4,4,2,2,1,2,2,2,5,1,1,2,2,3,1,1,2,1,4,5,5,3,3,5,5,2,4,3,5,3,2,2,4,2,5,3,2,4,4,4,3,2,2,2,5,4,4,4,5,5,5,5,5,5,5,1,1,1,1,1,4,4,1,1,3,2,4,3,1,1,4,2,2,3,4,4,5,5,5,4,4,2
Portugal,1996,2,1,2,3,1.49,46,3,2,2,0,2,NA,1,2,36.6,36.6,36.6,44.81860352,-9.133300781,73,13,11:33:16,8,1,2,1,NA,4,2,5,1,3,4,6,3,2,8,2,8,1,NA,NA,1,1,NA,2,Grupo de Jovens,NA,NA,NA,NA,7,NA,NA,NA,NA,3,2,3,4,3,4,4,3,2,3,3,2,2,3,4,4,3,3,3,3,3,3,2,4,4,3,3,2,3,2,2,1,1,2,2,2,3,2,4,4,3,3,2,2,2,2,4,3,5,3,5,3,3,6,6,5,2,2,2,2,2,2,2,2,2,6,3,3,3,3,6,3,2,2,2,2,6,2,5,3,6,5,1,3,4,4,4,4,4,3,4,4,6,4,5,4,4,4,4,2,5,1,4,5,2,5,2,5,5,5,1,2,1,3,3,5,6,5,6,6,3,5,3,3,3,4,4,3,3,4,4,3,2,3,4,4,5,4,3,3,4,3,4,3,3,3,3,2,2,3,4,2,3,3,3,4,3,4,3,4,3,3,4,3,4,2,2,3,4,3,3,4,3,3,3,4,3,2,3
Serbia,1996,2,1,2,7,1.64,50,4,2,2,1,1,5,1,2,36.5,36.7,36.6,38.71670532,20.46809387,44,12,10:27:13,6,1,2,1,NA,4,4,5,NA,5,3,4,3,1,NA,2,8,1,NA,NA,1,1,NA,1,NA,NA,NA,NA,NA,NA,NA,NA,NA,NA,4,3,4,4,2,3,4,3,4,4,4,3,4,3,3,4,3,2,2,3,3,3,2,4,4,2,3,2,2,1,1,1,2,3,1,4,4,4,2,4,1,1,1,1,1,3,4,2,2,2,2,3,5,3,3,NA,2,3,8,2,2,5,5,5,2,3,3,2,NA,2,5,2,NA,NA,NA,NA,5,3,3,7,6,NA,3,5,4,4,5,5,4,2,1,4,7,6,2,6,6,5,6,1,1,1,2,1,1,1,1,1,1,2,3,1,1,2,3,5,7,6,3,5,3,5,4,2,2,5,4,4,2,2,4,2,2,2,3,2,4,4,5,5,5,5,4,4,5,4,1,2,1,1,2,2,2,2,1,2,1,4,2,4,2,2,3,4,3,1,1,5,5,5,5,5,2,5,4,2,4,3,4
Serbia,1996,2,1,2,7,1.65,53,3,2,0,0,2,NA,1,2,36.5,36.7,36.6,44.81860352,20.46809387,75,4,10:54:06,6,1,2,1,NA,4,4,5,NA,3,3,4,4,1,NA,2,8,1,NA,NA,3,1,NA,1,NA,NA,NA,NA,NA,NA,NA,NA,NA,NA,3,3,4,4,4,3,5,3,2,3,3,4,3,3,4,4,3,3,3,3,4,3,3,3,4,2,3,2,3,1,2,4,1,2,2,2,4,3,4,2,3,2,2,2,2,1,4,3,4,3,5,4,5,5,5,3,2,3,4,4,2,2,2,4,2,3,3,8,NA,3,3,4,5,3,3,NA,3,3,3,6,6,NA,NA,4,5,4,5,5,4,4,3,4,3,4,3,3,5,4,4,3,3,2,4,2,2,3,4,2,4,2,2,3,2,2,2,3,3,6,1,5,4,3,1,2,1,4,2,3,2,2,3,5,2,2,2,2,3,3,4,4,3,4,3,3,4,4,1,1,1,3,3,4,2,4,2,2,3,3,3,1,4,2,2,4,3,2,1,3,4,3,3,3,2,4,4,3,3,1,4
Kassel,1996,2,1,1,5,1.64,49,4,2,0,0,2,NA,1,2,36.4,36.8,36.6,51.71710205,8.741699219,88,1,10:30:17,1,1,2,1,NA,4,4,4,1,3,3,6,6,2,1,2,8,1,NA,NA,1,1,NA,1,NA,NA,NA,NA,NA,NA,NA,NA,NA,NA,3,3,3,4,2,3,3,2,3,4,4,4,4,3,3,3,2,2,2,2,3,3,3,3,4,2,2,3,4,2,3,2,1,1,1,4,4,3,2,3,2,1,3,1,2,2,2,3,1,1,2,2,1,2,1,3,1,6,5,1,1,1,1,1,2,1,1,2,1,7,1,1,1,7,1,1,1,1,1,5,5,1,1,4,4,4,4,3,4,2,4,4,5,4,5,4,4,3,3,2,2,2,2,3,2,2,2,2,2,4,2,3,2,3,3,4,6,7,4,6,5,6,2,2,1,5,4,4,2,3,3,2,3,1,2,3,3,2,3,2,2,4,4,3,4,4,3,4,3,3,3,3,2,2,2,2,4,4,3,1,2,3,3,3,4,2,2,4,4,3,3,2,2,4,3,2,3,4,2
METU,1996,2,1,2,7,1.66,53,2,1,6,0,2,NA,1,2,36.6,36.6,36.6,39.91169739,32.84030151,64,2,10:04:48,3,2,2,1,NA,4,4,5,NA,2,1,3,3,1,NA,2,8,1,NA,NA,3,1,NA,1,NA,NA,NA,NA,NA,NA,NA,NA,NA,NA,3,3,3,4,4,4,2,2,1,4,2,2,5,3,3,5,4,4,4,3,3,3,3,4,5,3,4,2,4,2,2,2,1,3,1,4,4,3,4,4,3,1,1,2,1,2,3,6,6,5,6,7,6,5,6,7,3,7,2,2,2,6,5,6,5,4,6,6,7,6,3,7,7,6,2,3,5,5,6,7,6,2,4,5,4,4,5,4,5,5,5,4,5,5,6,6,7,5,5,2,3,1,2,3,2,3,3,3,2,2,2,3,3,1,2,5,6,7,5,4,5,6,3,2,4,4,1,1,2,2,1,4,5,1,4,3,3,4,2,4,1,4,4,5,3,1,2,3,2,2,4,3,2,2,1,2,4,4,5,4,2,4,3,4,3,1,3,2,4,1,1,4,2,2,3,1,2,1,1
Bamberg,1996,2,1,1,6,1.68,61,4,2,1,0,2,NA,1,2,36.5,36.7,36.6,48.77600098,11.44590759,72,6,11:58:44,1,1,2,1,NA,4,4,4,4,3,3,6,4,1,NA,2,8,1,NA,NA,2,1,NA,1,NA,NA,NA,NA,NA,NA,NA,NA,NA,NA,3,2,4,4,3,4,5,4,3,4,4,3,3,2,3,3,2,2,3,2,3,2,2,3,3,2,2,2,4,3,4,4,1,2,3,4,3,3,2,3,2,1,1,1,1,2,2,2,2,2,3,4,2,3,4,1,2,2,2,2,1,2,2,2,2,3,5,5,1,3,1,1,1,1,2,2,2,2,1,5,6,2,3,4,3,4,3,2,3,2,4,4,2,4,3,3,4,2,2,2,3,1,4,1,1,2,2,2,2,2,2,2,2,4,2,5,5,6,4,4,2,2,2,2,2,5,4,4,2,3,3,2,4,2,1,2,2,1,4,4,2,3,3,5,4,5,4,4,2,2,3,2,2,4,1,2,5,3,4,2,3,4,4,3,3,2,2,2,4,2,3,4,4,3,4,4,4,1,3
Serbia,1996,2,3,2,1,1.6,63,3,1,NA,NA,1,10,1,2,36.8,36.4,36.6,44.81860352,20.46809387,95,6,12:25:53,6,1,2,1,NA,4,4,5,NA,2,2,6,6,1,NA,2,8,1,NA,NA,1,1,NA,1,NA,NA,NA,NA,NA,NA,NA,NA,NA,NA,4,1,3,5,4,4,2,2,4,3,3,3,5,3,4,5,1,2,3,2,4,2,2,4,5,2,4,3,4,2,4,4,4,1,3,4,4,4,4,4,2,2,3,2,2,2,4,3,2,4,3,5,4,2,5,3,2,NA,2,2,2,2,2,8,2,3,NA,7,NA,8,2,4,3,NA,3,NA,3,NA,5,6,7,4,NA,4,3,3,5,4,4,3,3,3,3,2,3,3,2,3,3,2,3,1,5,2,1,2,3,3,2,3,1,1,2,1,1,5,6,3,1,2,4,6,4,3,3,4,2,2,3,4,4,4,2,4,4,4,4,1,4,2,4,4,4,4,4,2,4,3,2,4,5,5,2,3,2,4,4,4,4,2,1,3,3,2,3,1,4,3,4,1,1,4,3,2,2,2,2,2,4
SMU,1996,2,1,1,7,1.69,56,3,2,0,0,2,NA,1,2,36.6,36.6,36.6,1.293106079,103.8558044,70,26,10:19:23,5,1,2,1,NA,4,4,5,NA,3,3,7,7,1,NA,2,8,1,NA,NA,2,1,NA,1,NA,NA,NA,NA,NA,NA,NA,NA,NA,NA,3,2,3,3,3,4,2,2,3,2,3,4,4,4,5,4,3,2,2,2,3,3,3,4,4,2,3,4,4,3,4,4,4,4,3,4,4,4,4,4,3,3,3,3,3,3,4,4,5,2,4,5,4,3,3,4,2,5,3,2,2,4,5,5,2,4,3,3,2,2,3,3,3,3,3,3,3,4,3,3,3,3,3,4,4,4,4,4,4,4,4,4,5,6,6,6,6,6,6,4,4,2,4,4,3,4,4,4,3,4,3,4,2,4,2,4,5,7,5,5,5,5,2,4,4,3,2,4,3,4,4,4,4,1,3,4,3,4,2,4,3,3,3,4,4,4,3,4,4,4,4,4,2,2,4,2,2,3,4,2,2,4,4,3,4,4,3,4,4,4,4,4,3,4,3,4,3,2,4
UCSB,1996,2,1,1,6,1.6002,58.63636364,3,1,0,0,2,NA,1,2,36.61111111,36.61111111,36.61111111,34.0184021,-119.7252045,84,7.222222222,NA,5,1,2,1,NA,4,4,4,1,4,3,5,4,2,1,2,2,1,NA,NA,1,1,NA,1,NA,NA,NA,NA,NA,NA,NA,NA,NA,NA,4,4,5,5,3,4,3,2,4,5,5,3,5,3,4,3,2,2,2,3,2,3,3,3,4,3,2,2,2,2,4,3,2,4,4,5,4,4,3,4,3,2,4,4,2,2,3,4,4,4,5,5,4,3,5,4,3,4,5,4,3,5,3,4,3,5,4,4,3,5,4,5,4,4,3,3,4,2,4,3,3,4,4,4,4,4,4,4,4,4,4,4,5,5,5,5,6,6,5,3,4,2,3,2,2,4,4,4,3,3,2,3,3,4,2,3,2,5,3,3,2,3,2,3,4,4,2,4,3,2,4,5,5,2,4,4,3,4,4,2,2,3,4,4,4,4,4,4,4,2,2,2,2,2,3,2,4,4,4,4,2,4,4,4,3,3,4,4,4,4,3,4,4,4,2,4,4,3,3
UCSB,1996,2,1,2,7,1.5494,55.90909091,3,1,0,0,2,NA,2,2,36.16666667,37.11111111,36.63888889,34.4329071,-119.8370972,69,8.333333333,10:24:00,5,1,2,1,NA,4,2,5,NA,2,2,4,4,1,NA,2,7,1,NA,NA,1,1,NA,1,NA,NA,NA,NA,NA,NA,NA,NA,NA,NA,4,3,3,4,4,4,2,3,3,2,4,4,4,3,3,5,2,2,2,3,4,1,3,3,5,4,5,4,4,3,3,4,3,4,4,4,2,2,2,2,2,2,3,2,2,4,2,2,2,4,5,2,4,4,5,2,4,4,4,4,2,4,4,5,2,5,4,6,5,5,6,4,5,4,4,3,6,4,5,4,4,4,4,4,4,4,3,4,4,4,4,4,4,5,4,4,5,5,5,3,4,2,3,3,3,3,4,4,3,3,2,3,2,3,2,3,3,3,2,2,4,2,2,4,4,4,2,2,2,2,3,4,4,2,4,4,3,4,4,3,2,3,4,4,4,3,2,3,4,3,3,3,3,2,3,2,4,3,4,3,2,4,3,2,3,2,4,3,4,2,2,2,4,3,2,3,2,2,2
Poland,1996,2,1,1,7,1.76,53,4,2,6,4,2,NA,1,2,36.5,36.8,36.65,54.36079407,18.65829468,78,-3,12:04:38,9,1,1,1,NA,4,4,4,2,6,3,5,5,2,1,2,8,2,1,1,2,2,2,1,NA,NA,NA,NA,NA,NA,NA,NA,NA,NA,4,4,4,4,5,4,2,2,3,3,4,4,4,2,3,4,5,2,4,4,3,3,3,3,4,4,3,1,1,1,1,1,4,1,1,2,1,2,1,1,1,1,1,1,1,1,1,6,5,1,1,4,5,1,1,4,1,4,1,1,1,1,5,6,1,1,3,5,1,2,2,1,3,1,1,1,1,2,1,5,4,2,2,4,4,4,4,4,4,3,4,4,7,6,6,5,4,5,4,4,3,4,4,2,4,4,3,4,4,4,2,3,1,3,2,3,4,2,3,4,4,1,3,4,4,4,2,2,2,2,4,4,4,1,4,4,3,4,3,1,2,4,4,4,3,5,4,5,3,2,4,3,1,2,1,1,1,4,4,3,2,2,4,3,4,2,2,3,4,3,3,3,2,3,4,4,2,2,4
Serbia,1996,1,1,2,7,1.77,74,4,2,0,0,2,NA,1,2,36.6,36.7,36.65,44.81860352,20.46809387,45,12,12:59:17,6,1,2,1,NA,4,4,5,NA,8,3,8,6,1,NA,2,8,1,NA,NA,6,1,NA,1,NA,NA,NA,NA,NA,NA,NA,NA,NA,NA,4,3,5,2,3,4,4,4,4,3,4,4,4,2,2,3,2,2,2,3,2,3,2,3,4,1,2,2,2,2,2,2,1,2,2,2,4,3,4,3,4,2,2,2,2,2,4,3,3,5,8,8,5,2,4,4,2,3,4,5,5,1,4,2,2,3,3,5,NA,2,2,2,3,3,3,NA,5,3,4,6,5,NA,4,4,4,3,5,4,3,4,3,4,3,5,5,4,4,3,4,3,3,2,2,3,3,4,2,2,4,2,3,3,4,3,3,4,6,3,2,3,4,4,4,2,3,4,2,2,2,3,2,4,3,4,3,3,2,4,3,4,4,4,5,4,3,5,2,2,2,3,5,5,3,4,2,2,1,3,3,2,2,3,4,4,4,3,4,4,4,3,4,4,3,4,3,4,3,4,2
Poland,1996,2,1,1,7,1.65,52,3,1,5,34,2,NA,1,2,36.6,36.7,36.65,54.47450256,18.38330078,85,0,10:34:53,9,1,2,1,NA,4,4,4,4,3,3,2,2,2,1,2,5,2,1,1,1,1,NA,1,NA,NA,NA,NA,NA,NA,NA,NA,NA,NA,3,2,3,5,5,4,1,5,2,4,4,1,4,3,5,5,4,2,3,3,3,3,4,5,5,5,4,2,3,2,3,3,2,2,2,4,4,4,4,4,4,2,2,2,2,2,4,6,6,1,2,3,6,3,2,5,1,3,2,1,2,5,6,5,1,1,1,2,1,1,1,2,1,7,1,1,1,1,2,4,4,1,1,4,4,4,3,4,3,2,3,4,6,5,5,3,5,4,3,2,2,4,2,2,5,4,2,2,4,2,3,1,2,2,2,4,5,6,4,6,7,7,1,3,1,5,4,4,2,2,5,4,2,1,3,4,5,2,4,4,3,5,4,4,4,5,3,5,3,2,5,3,1,3,1,2,2,4,5,2,2,3,4,5,2,3,2,4,4,5,5,5,2,5,4,4,4,2,4
Oslo,1996,2,1,1,4,1.75,55,4,2,NA,NA,2,NA,1,2,36.6,36.7,36.65,59.91270447,10.74609375,84,-3,16:11:09,4,1,1,1,NA,4,4,4,1,1,NA,2,1,1,NA,2,4,3,1,1,1,1,NA,1,NA,NA,NA,NA,NA,NA,NA,NA,NA,NA,3,1,3,3,5,2,3,4,5,4,4,4,5,4,3,4,4,3,4,4,4,2,3,4,5,4,3,3,4,4,2,4,2,2,3,2,5,3,2,3,2,2,4,4,1,4,3,2,1,1,6,5,3,7,2,7,3,2,6,1,1,1,7,6,3,1,1,5,1,1,1,1,1,1,2,1,2,2,3,1,2,1,1,4,5,3,4,5,5,4,5,5,4,3,7,6,5,4,6,2,3,4,1,2,3,1,2,3,4,2,2,5,3,4,3,5,5,6,2,2,3,2,1,5,1,5,3,4,3,2,4,3,1,1,1,4,5,2,5,1,2,2,3,1,4,5,4,5,5,5,5,5,1,2,1,2,2,4,3,2,1,3,4,4,4,5,4,4,3,4,2,4,2,3,4,2,4,2,5
Serbia,1996,2,1,2,7,1.7,69,3,2,3,0,2,NA,1,2,36.6,36.7,36.65,44.81860352,20.46809387,45,12,11:26:11,6,1,2,1,NA,4,4,5,NA,1,NA,8,8,1,NA,2,8,1,NA,NA,2,1,NA,1,NA,NA,NA,NA,NA,NA,NA,NA,NA,NA,4,3,2,2,2,3,2,2,3,3,2,3,4,3,3,3,3,2,2,3,2,3,4,3,4,3,2,3,3,2,4,3,2,2,3,5,2,4,4,4,3,3,2,4,3,2,4,5,5,4,5,8,3,8,5,3,3,NA,7,4,2,5,3,5,3,5,NA,5,NA,2,3,5,NA,3,NA,1,3,NA,8,5,5,1,NA,3,3,3,3,4,2,2,3,3,3,3,3,2,4,3,3,4,4,1,3,2,3,4,3,3,2,2,1,2,2,2,2,3,4,4,2,1,2,4,4,4,5,2,1,3,1,1,3,5,5,4,3,2,3,3,3,4,4,4,2,4,3,3,2,3,4,5,5,2,5,4,2,3,4,3,2,3,4,2,2,4,3,3,2,5,3,2,3,4,2,3,4,4,2,3,4
Tsinghua,1996,2,1,2,7,1.55,48,2,2,8,0,2,0,1,2,36.6,36.7,36.65,30.58009338,114.273407,64,12,10:29:25,7,3,2,1,0,4,2,5,0,1,0,7,4,1,1,2,3,3,1,1,1,2,1,1,õÌÈ­µÀ,ÇÞÊÒ,NA,NA,NA,5,4,0,0,0,3,3,2,3,3,4,2,3,2,3,3,2,3,3,3,2,3,4,3,3,3,4,5,2,2,3,1,3,4,2,4,3,3,2,4,4,3,3,3,3,3,3,3,2,2,3,3,3,4,4,4,4,3,4,5,2,5,2,4,4,3,4,3,4,3,5,4,6,5,4,5,5,3,5,4,2,6,4,5,4,5,4,4,4,4,3,4,4,2,3,3,3,3,3,3,4,4,4,4,2,3,3,3,2,2,4,3,3,3,2,2,4,2,3,2,4,4,4,2,2,1,3,3,3,3,4,2,2,2,3,3,4,3,2,2,4,4,2,2,4,2,2,3,4,3,2,2,4,4,3,4,4,2,2,3,2,2,2,2,3,2,4,3,4,3,2,3,4,3,3,2,2,2,3,3,3,3,3,2
METU,1996,2,1,1,7,1.65,47,5,2,1,0,2,NA,1,2,36.6,36.7,36.65,39.91169739,32.84030151,72,8,10:59:49,3,2,2,1,NA,4,2,4,1,4,2,5,5,1,NA,2,8,1,NA,NA,1,1,NA,1,NA,NA,NA,NA,NA,NA,NA,NA,NA,NA,3,4,4,5,2,5,2,1,2,4,4,2,5,4,4,3,3,2,3,3,3,4,3,5,4,3,4,5,4,5,5,4,4,5,4,5,4,4,4,4,4,2,3,3,4,4,4,6,2,2,5,6,6,5,6,5,2,6,2,4,1,1,5,2,1,2,1,2,2,3,2,5,3,2,2,1,1,1,5,2,2,1,2,3,2,3,3,3,1,1,1,1,6,7,7,7,7,6,7,1,2,1,1,2,3,2,3,1,2,2,3,3,1,2,1,5,7,7,3,5,5,4,1,2,4,5,4,5,3,4,4,5,5,4,2,5,5,3,4,5,2,5,3,5,4,4,4,4,2,2,4,2,1,3,4,2,5,5,4,3,3,4,5,2,4,5,1,3,3,5,3,5,2,4,4,4,4,2,5
Kassel,1996,1,1,1,6,1.75,74,2,2,1,0,1,2,1,2,36.62,36.71,36.665,51.28779602,9.470504761,77,5,09:59:34,1,1,1,1,NA,4,4,4,2,4,4,6,4,2,1,2,8,1,NA,NA,1,1,NA,2,Sportverein,NA,NA,NA,NA,5,NA,NA,NA,NA,4,3,5,4,2,3,4,4,2,4,4,4,4,2,3,4,2,3,2,2,3,2,2,3,3,3,2,3,2,1,2,1,1,1,1,2,4,3,2,3,1,1,2,2,2,3,3,3,3,2,3,2,4,5,4,5,2,2,3,1,2,4,2,3,1,4,2,5,2,3,2,3,1,1,3,2,3,4,1,3,3,3,2,4,4,4,4,3,2,3,3,3,3,4,4,5,5,3,3,2,3,2,2,2,2,1,1,1,2,4,1,1,2,4,2,4,5,5,2,3,4,2,3,3,4,4,2,3,2,3,3,4,3,2,3,4,4,2,1,2,3,4,2,4,3,4,3,4,2,2,2,1,1,3,3,2,1,4,2,4,3,2,3,4,2,2,2,4,3,2,4,4,2,3,1,4,4,1,1
Kassel,1996,2,1,1,7,1.7,65,3,2,3,2,1,2,1,2,36.82,36.51,36.665,51.36669922,8.800003052,65,-2,09:55:26,1,1,1,1,NA,4,2,4,1,7,3,8,4,2,1,2,8,3,1,3,4,1,NA,1,NA,NA,NA,NA,NA,NA,NA,NA,NA,NA,3,3,3,3,3,3,1,3,2,4,3,4,4,3,3,4,2,2,3,3,3,3,2,4,4,2,3,1,3,1,3,1,1,1,2,2,3,4,3,4,2,1,1,1,1,2,3,2,4,2,1,1,3,1,2,6,2,6,2,2,1,2,2,5,1,5,5,5,5,4,5,4,3,3,3,3,3,3,3,3,6,2,2,4,4,5,5,5,5,2,5,5,6,5,6,5,5,5,5,3,3,1,4,2,2,2,2,4,2,3,2,2,2,4,3,4,5,4,3,3,4,4,2,4,3,5,3,5,5,3,5,5,4,1,3,5,3,2,2,3,2,4,3,5,4,5,4,4,2,3,4,3,2,2,2,1,4,4,5,1,2,4,4,4,4,4,1,4,4,3,2,4,1,5,3,2,3,3,2
Serbia,1996,2,1,1,7,1.64,60,2,2,0,0,2,NA,1,2,36.7,36.7,36.7,44.81860352,20.46809387,45,12,10:43:32,6,1,2,1,NA,4,4,5,NA,3,3,4,4,1,NA,2,8,1,NA,NA,1,2,8,2,klub pedagoga,trkacka mreza,joga,crtanje,debata,10,12,4,7,20,5,5,4,5,5,5,2,5,5,5,5,5,3,2,2,3,3,2,1,2,2,2,2,1,3,1,1,1,1,1,1,3,1,4,2,2,1,3,1,4,1,1,1,1,1,1,1,1,1,1,1,4,1,1,1,4,1,7,1,1,1,1,4,1,1,4,1,4,1,1,1,5,4,NA,4,NA,NA,NA,1,7,7,1,1,4,4,4,4,4,1,1,1,1,4,1,1,1,5,5,6,1,1,5,2,1,1,2,1,2,3,1,3,3,1,2,1,5,7,4,4,4,4,4,5,5,5,5,1,1,2,5,1,5,5,5,1,1,1,5,3,5,5,5,5,1,4,5,1,1,1,3,5,1,3,3,2,4,4,3,1,5,3,1,3,4,3,3,3,5,5,2,2,2,4,4,1,2,2,2,4
Serbia,1996,2,1,2,7,1.6,52,4,2,3,0,2,NA,1,2,36.7,36.7,36.7,44.81860352,20.46809387,65,8,11:19:29,6,1,2,1,NA,4,2,5,NA,5,4,4,4,2,1,2,5,1,NA,NA,3,1,NA,1,NA,NA,NA,NA,NA,NA,NA,NA,NA,NA,5,4,1,5,5,5,4,4,4,4,5,5,4,2,2,3,2,2,2,3,2,2,2,3,5,2,2,2,3,2,2,2,2,1,2,4,2,2,1,1,1,1,1,1,1,2,2,8,4,8,5,2,2,1,2,4,2,NA,2,2,2,2,3,2,2,3,NA,1,NA,2,2,2,6,3,NA,NA,NA,NA,2,7,6,3,5,4,4,4,5,5,4,3,4,4,4,4,4,3,3,5,5,2,2,2,3,1,2,2,1,4,1,1,2,2,1,2,2,2,2,2,1,1,1,2,1,5,1,5,5,2,1,1,4,1,2,2,1,1,2,3,4,2,3,4,4,3,4,2,1,1,1,1,2,5,1,3,1,2,5,3,3,1,1,4,2,3,4,1,2,1,4,2,2,3,2,4,3,3,3,2,2
Serbia,1996,2,1,1,7,1.7,64,5,2,1,0,2,NA,1,2,36.7,36.7,36.7,43.32470703,21.90330505,47,8,12:08:00,6,1,2,1,NA,4,4,5,NA,6,6,6,6,1,NA,2,6,1,NA,NA,2,1,NA,1,NA,NA,NA,NA,NA,NA,NA,NA,NA,NA,5,5,3,5,4,5,5,4,2,4,5,4,5,2,3,2,2,2,1,1,2,2,2,4,3,2,2,2,4,4,4,2,2,2,1,4,4,5,4,4,2,2,4,1,2,1,4,1,1,2,2,3,1,1,8,7,1,7,1,1,1,2,1,2,1,8,NA,7,3,5,8,8,NA,NA,3,3,5,1,5,7,6,NA,NA,5,4,3,5,5,4,2,2,4,3,2,6,2,4,4,4,2,3,3,3,2,2,4,4,4,3,2,1,1,1,2,1,4,5,4,1,4,5,4,2,4,1,5,4,4,4,2,2,2,2,2,3,2,4,2,4,4,4,5,3,2,4,4,2,2,1,2,2,2,1,1,2,1,1,2,5,2,2,2,5,4,4,2,1,5,3,4,2,4,2,5,2,5,2,4,4
Poland,1996,2,1,1,7,1.64,58,2,1,4,24,1,4,1,2,36.6,36.8,36.7,52.25,21,55,-3,15:40:12,9,1,2,1,NA,4,4,4,1,4,1,4,3,1,NA,2,4,2,1,1,1,1,NA,1,NA,NA,NA,NA,NA,NA,NA,NA,NA,NA,2,2,3,1,3,4,3,3,1,1,2,4,4,4,5,5,3,3,3,3,4,2,4,5,4,3,4,4,4,3,4,2,3,4,4,4,5,5,5,5,5,2,4,3,1,2,5,7,7,5,7,7,7,2,5,4,1,1,2,4,6,7,6,7,2,4,3,3,2,7,2,4,3,4,6,2,3,3,5,5,5,5,3,3,3,3,4,3,2,2,4,3,6,6,6,5,6,5,5,4,4,4,4,5,3,5,4,3,3,5,2,3,2,4,3,5,7,6,3,3,2,2,4,5,2,4,1,2,1,2,2,5,5,5,5,5,3,2,5,5,2,2,5,5,1,2,2,5,3,3,4,4,3,4,1,1,3,4,5,1,1,5,5,4,5,1,1,2,4,1,2,3,5,1,4,2,2,1,5
Serbia,1996,2,1,2,7,1.73,68,4,2,2,0,2,NA,1,2,36.6,36.8,36.7,44.81860352,20.46809387,51,5,10:15:10,6,1,2,1,NA,4,2,5,NA,8,3,7,6,1,NA,2,8,1,NA,NA,2,1,NA,1,NA,NA,NA,NA,NA,NA,NA,NA,NA,NA,5,3,5,4,4,4,1,5,5,4,3,4,3,3,4,5,2,3,2,2,1,4,3,5,5,1,3,4,4,4,5,2,3,3,4,4,5,5,4,5,4,4,3,4,2,3,4,2,2,2,5,8,4,2,5,3,2,3,4,4,4,2,7,1,1,2,NA,8,NA,2,2,2,3,NA,NA,NA,NA,NA,1,6,7,NA,4,5,4,4,5,5,3,2,4,4,6,5,5,3,4,3,4,3,2,1,3,4,3,3,4,2,2,5,1,2,2,1,2,4,4,6,2,4,4,4,4,3,2,4,2,2,3,5,2,4,3,1,3,3,4,5,4,5,5,4,5,3,3,5,1,1,1,3,4,3,3,1,3,1,2,3,3,4,4,3,3,4,4,3,4,1,4,3,4,4,4,3,3,2,3,3,2
Tsinghua,1996,2,1,2,7,1.53,55,3,2,8,0,2,0,1,2,36.7,36.7,36.7,39.92889404,116.3883057,21,11,11:10:16,7,3,2,1,0,4,4,5,0,4,1,8,8,1,1,2,8,3,6,8,5,1,5,1,ÍÅÎ¯Ö¾Ô¸×é,Í¼Êé¹ÝÖúÀí·Ö¶Ó,NA,NA,NA,3,7,NA,NA,NA,1,2,4,3,2,2,2,1,2,4,4,1,3,4,4,4,4,3,3,4,3,5,4,2,4,3,3,5,5,2,4,5,3,2,5,5,3,2,5,3,4,3,5,4,4,4,5,6,3,2,3,6,2,2,3,5,2,1,3,2,2,2,2,4,2,4,2,2,3,2,2,3,4,2,2,2,5,2,5,3,3,2,2,5,5,5,5,5,5,5,5,5,3,1,5,7,7,4,6,2,2,2,2,2,4,3,3,2,2,2,2,4,1,3,3,4,5,6,3,3,1,3,1,5,5,5,1,4,2,2,3,5,4,2,2,4,4,4,2,5,2,2,4,4,3,1,1,5,5,3,4,5,1,1,2,5,4,4,5,2,2,4,4,5,5,4,1,5,5,5,1,4,1,5,5,5,4,2,2
SMU,1996,2,1,2,4,1.6,44,4,2,13,0,2,NA,1,2,36.7,36.7,36.7,1.293106079,103.8558044,71,26,10:21:08,5,1,2,1,NA,4,4,5,NA,8,4,8,7,1,NA,2,5,1,NA,NA,3,1,NA,1,NA,NA,NA,NA,NA,NA,NA,NA,NA,NA,2,2,2,2,2,3,2,2,2,2,4,4,3,5,5,5,2,1,2,2,5,3,2,5,5,2,5,4,5,4,5,4,4,5,4,5,5,5,5,4,5,2,5,4,4,4,5,6,6,6,6,6,6,6,2,3,2,2,3,6,4,2,7,6,3,2,2,3,2,2,2,2,2,2,2,2,2,2,3,2,2,2,2,5,5,5,5,5,5,5,5,5,6,5,5,4,7,6,6,2,2,2,2,2,2,2,4,2,4,2,3,2,2,2,2,1,6,4,3,3,3,3,2,4,2,4,1,4,4,4,4,4,3,1,2,4,4,2,3,4,2,4,4,4,4,4,3,4,5,4,4,5,2,2,3,2,2,4,2,4,4,3,5,4,4,3,2,4,4,4,2,3,2,2,3,2,4,2,5
UCSB,1996,2,1,2,6,1.6256,56.81818182,2,1,0,0,1,0,1,2,36.61111111,36.83333333,36.72222222,34.4335022,-119.5223007,65,9.444444444,NA,5,1,2,1,NA,4,2,2,1,4,1,3,2,1,NA,2,2,1,NA,NA,4,1,NA,2,Water Polo,Triathlon,N/A,N/A,N/A,7,3,0,0,0,1,1,3,2,1,1,4,2,2,1,2,1,5,5,4,5,3,3,2,4,5,3,4,5,5,4,5,1,4,1,4,2,1,2,4,2,2,4,2,2,1,1,1,2,5,1,2,4,4,6,5,1,1,2,5,3,2,3,1,5,1,6,1,7,4,7,3,7,5,6,6,6,3,7,6,4,4,4,6,6,6,5,3,4,4,3,3,1,4,4,2,2,5,4,5,3,6,5,6,4,4,5,4,4,4,5,2,5,5,5,2,4,4,5,3,1,2,2,2,2,3,1,4,4,4,4,2,1,5,4,2,5,4,2,4,5,5,2,2,1,1,2,5,4,4,4,2,3,2,3,3,2,3,1,3,4,1,5,2,5,3,2,3,5,2,2,4,2,4,1,2,2,5,5,1,3,3,1,4
UCSB,1996,2,1,1,7,1.7526,61.36363636,4,1,3,0,2,NA,1,1,36.72222222,36.72222222,36.72222222,34.4329071,-119.8370972,74,12.22222222,NA,5,1,2,1,NA,4,2,5,NA,5,1,8,6,1,NA,2,4,1,NA,NA,3,1,NA,2,Volleyball Team,Dorms,Hometown,Family,High School,12,3,3,4,8,4,3,4,4,4,4,3,4,3,4,5,4,3,2,4,5,2,2,2,2,3,2,2,3,5,2,3,2,4,3,4,4,2,3,4,2,4,4,4,4,2,2,4,3,4,2,4,4,4,2,5,4,5,3,3,3,2,6,4,3,2,2,5,4,2,2,3,3,2,2,2,2,2,2,2,2,2,3,2,3,3,2,3,5,4,4,5,5,5,5,5,5,7,4,5,5,5,5,5,2,4,1,2,1,2,3,2,3,2,1,2,2,3,4,3,4,7,6,3,3,3,3,1,4,5,5,3,4,4,3,4,5,2,2,3,4,3,2,3,3,3,3,4,3,4,4,4,4,3,4,2,2,2,3,3,2,5,4,4,2,2,4,3,4,3,4,2,4,4,4,3,4,2,3,4,3,3,2,2
METU,1996,2,4,1,7,1.6,46,4,2,NA,NA,2,NA,1,2,36.9,36.6,36.75,39.91169739,32.84030151,69,6,09:39:35,3,2,2,1,NA,2,2,2,2,8,8,2,1,1,NA,2,8,1,NA,NA,1,1,NA,1,NA,NA,NA,NA,NA,NA,NA,NA,NA,NA,2,4,4,4,5,1,5,4,4,4,4,4,2,3,3,3,3,3,3,3,3,3,3,3,3,3,3,1,1,1,1,1,1,1,1,1,4,1,4,3,3,1,1,1,1,1,3,6,5,2,2,7,3,3,5,6,2,5,2,4,1,4,7,1,2,2,2,2,6,7,2,4,2,2,2,4,5,2,5,3,2,2,1,5,5,5,5,5,4,4,5,5,7,6,7,6,6,6,6,2,2,3,3,2,2,3,2,2,3,2,2,2,2,4,2,5,7,3,2,2,2,2,4,2,5,5,2,2,2,4,2,5,4,2,2,4,4,3,3,3,3,4,4,4,4,3,3,4,4,3,4,4,1,1,1,1,2,3,3,3,3,3,4,4,3,2,3,4,4,5,5,3,3,4,3,3,3,3,4
Tsinghua,1996,2,1,2,7,1.58,48.8,4,2,0,0,2,0,1,2,36.8,36.7,36.75,30.58009338,114.273407,78,17,10:51:07,7,3,2,1,0,4,4,5,0,6,1,6,1,1,1,2,3,1,1,1,1,2,1,1,IT¼¼ÊõÑ§Ï°ÍÅÌå,ºÃÓÑÍÅÌå,NA,NA,NA,2,7,NA,NA,NA,4,5,4,4,5,1,3,2,3,4,4,5,4,1,2,2,2,1,1,1,1,1,2,1,4,2,1,1,3,1,1,2,1,4,3,2,3,3,3,4,1,1,1,1,1,1,1,4,5,3,5,6,4,5,5,3,5,2,4,4,5,2,6,6,3,5,4,6,5,4,5,6,5,6,3,2,6,2,5,5,5,6,2,3,3,3,3,3,3,2,2,2,3,2,2,4,4,3,3,2,2,3,1,2,1,2,2,2,1,1,2,3,2,2,1,4,4,2,1,1,4,3,2,2,4,4,2,2,2,2,2,4,2,1,4,3,2,3,1,5,1,1,5,3,4,2,4,4,3,3,4,4,3,3,3,2,4,4,3,4,2,4,2,4,4,2,3,2,4,2,3,3,2,2,3,3,3,5,1
Serbia,1996,2,1,1,7,1.82,73,4,2,5,0,2,NA,1,2,36.5,37,36.75,44.81860352,20.46809387,45,12,11:24:41,6,1,2,1,NA,4,4,4,4,7,6,4,4,1,NA,2,8,1,NA,NA,3,1,NA,1,NA,NA,NA,NA,NA,NA,NA,NA,NA,NA,4,5,4,4,4,4,2,1,3,1,2,4,4,3,4,4,2,3,2,2,3,2,3,4,5,2,4,2,2,2,2,2,2,2,2,2,4,2,2,3,4,2,2,2,2,2,4,1,1,2,1,1,4,1,1,1,1,NA,1,1,1,1,1,8,1,1,1,5,1,7,1,1,1,1,1,1,1,1,1,6,5,1,1,5,5,5,5,5,5,3,4,5,3,5,5,4,5,5,4,4,4,1,2,4,4,4,2,3,2,4,2,2,1,3,1,5,6,7,1,6,6,6,3,3,4,4,2,3,4,2,3,4,4,4,2,2,3,4,4,4,4,4,4,4,4,4,1,1,2,2,4,4,2,2,1,2,4,5,4,2,2,2,4,4,4,3,4,4,4,4,4,4,2,3,3,4,4,4,3
Serbia,1996,2,1,2,5,1.69,52,4,2,6,0,2,NA,1,2,36.8,36.7,36.75,44.81860352,20.46809387,45,12,11:21:58,6,1,2,1,NA,4,4,5,NA,7,3,8,7,1,NA,2,8,1,NA,NA,1,2,4,2,AIESEC,NA,NA,NA,NA,3,NA,NA,NA,NA,4,4,1,4,3,3,1,2,2,2,3,2,4,2,3,3,2,2,2,3,3,2,2,3,4,1,3,2,2,2,2,2,1,2,3,3,2,2,2,2,2,1,1,2,2,1,2,4,4,4,5,4,3,5,4,4,1,1,4,4,1,2,3,1,1,5,NA,8,3,5,8,7,6,6,4,NA,6,5,8,5,5,5,4,5,5,5,5,5,5,3,3,3,5,5,5,5,4,4,4,3,2,2,2,3,2,4,2,4,2,3,1,2,1,2,1,2,3,3,1,3,3,3,2,2,3,4,3,1,3,2,2,3,2,3,2,2,5,4,4,4,3,4,4,3,5,5,2,1,1,3,4,3,3,2,3,2,4,4,4,5,3,1,2,4,3,2,4,5,5,5,5,5,2,5,3,3,3,4,3
UCSB,1996,1,1,2,6,1.6764,50,3,1,2,0,2,NA,1,2,36.27777778,37.22222222,36.75,34.4329071,-119.8370972,58,10,10:51:00,5,1,2,1,NA,4,2,5,NA,2,2,5,4,1,NA,2,6,1,NA,NA,1,1,NA,2,Khmer,NA,NA,NA,NA,2,NA,NA,NA,NA,4,2,1,2,2,4,1,2,2,2,2,4,4,3,2,2,3,3,3,3,2,4,4,2,3,4,3,2,2,2,2,4,2,2,2,2,2,2,2,2,2,2,2,2,2,2,2,4,4,3,3,4,4,1,5,4,4,3,3,4,1,5,1,5,1,4,7,5,7,1,4,4,7,7,3,4,7,3,5,4,7,7,4,5,4,5,4,2,4,2,4,2,4,4,3,3,3,3,3,4,4,2,4,2,2,4,4,2,2,2,2,4,2,2,2,1,2,2,2,2,2,2,4,4,5,3,2,2,1,1,4,4,4,2,4,4,4,4,2,4,2,3,4,4,3,2,2,3,2,2,3,2,3,4,2,2,1,2,2,2,2,4,4,2,2,2,4,2,4,2,2,4,4,4,2,4,4,2,4
Serbia,1996,2,1,2,7,1.71,54,3,2,NA,NA,2,NA,1,2,36.5,37,36.75,44.81860352,20.46809387,75,4,10:59:19,6,1,2,1,NA,4,4,5,NA,3,3,5,4,2,1,2,8,1,NA,NA,3,1,NA,2,Klub studenata pedagoijeg,NA,NA,NA,NA,7,NA,NA,NA,NA,5,4,5,5,5,4,2,4,4,2,5,3,5,3,2,3,2,2,2,3,4,3,3,2,5,3,3,1,2,2,2,4,3,2,1,3,4,4,4,4,3,2,3,4,1,2,3,8,4,4,4,4,7,4,7,5,4,6,4,4,5,7,8,4,4,4,4,8,4,4,4,4,7,4,4,4,4,4,4,6,7,4,4,5,5,4,5,5,5,4,5,4,5,6,5,5,6,6,6,2,4,1,3,2,1,1,2,3,3,3,1,1,1,1,1,4,3,2,2,2,3,4,2,5,3,4,1,3,5,5,4,5,3,1,2,3,4,5,4,4,4,3,4,3,4,4,3,2,1,4,5,5,4,2,3,4,5,5,4,1,1,3,3,4,4,1,3,5,5,3,2,5,2,5,1,4,2,4,1
Poland,1996,2,1,1,6,1.6,53,4,2,9,0,2,NA,1,2,36.8,36.7,36.75,52.25,21,68,0,11:07:50,9,1,2,1,NA,4,4,4,1,5,1,4,4,2,1,2,3,2,1,1,1,1,NA,1,NA,NA,NA,NA,NA,NA,NA,NA,NA,NA,4,4,2,4,2,4,2,1,2,3,2,4,3,2,3,2,4,4,4,3,3,4,4,3,4,4,2,4,2,2,2,1,2,2,2,4,4,4,4,4,4,1,2,2,1,2,4,3,2,2,2,2,2,5,2,2,1,6,2,2,2,2,5,2,2,3,3,2,2,3,3,2,2,2,2,2,5,3,1,6,6,4,2,5,4,4,4,4,4,2,4,3,3,3,4,3,3,4,5,2,3,1,3,4,2,4,2,2,2,2,2,2,2,3,2,4,4,5,3,3,3,2,2,4,2,5,4,2,2,4,3,4,3,2,3,4,4,2,4,4,2,3,4,5,3,2,2,4,4,3,4,4,1,2,2,2,4,4,4,2,2,3,2,3,4,2,2,4,4,4,3,4,3,2,4,4,4,2,2
Serbia,1996,1,1,2,7,1.84,72,2,2,12,2,2,NA,1,2,36.8,36.7,36.75,44.81860352,20.46809387,83,4,13:29:26,6,1,2,1,NA,4,4,5,NA,4,4,4,4,2,1,2,7,1,NA,NA,1,1,NA,2,ars akta,NA,NA,NA,NA,6,NA,NA,NA,NA,3,4,3,3,3,3,3,3,2,2,4,2,3,4,4,5,3,3,4,4,4,3,3,4,4,3,4,3,3,1,3,3,2,2,3,3,2,3,3,3,3,1,3,3,3,2,3,4,2,5,4,8,2,2,7,3,2,4,4,5,4,4,5,4,2,8,1,8,NA,2,8,4,NA,1,NA,1,1,4,4,6,3,4,3,4,4,4,4,5,5,5,5,5,6,7,7,6,6,5,5,3,4,3,2,4,4,5,2,2,4,4,3,4,3,2,4,4,7,5,6,6,7,7,1,1,1,5,5,5,5,1,5,1,1,3,1,3,4,2,4,4,4,4,4,4,4,4,4,2,1,1,1,5,1,2,2,2,2,3,4,4,1,2,2,2,2,4,2,5,5,5,5,4,4,5,4,4,5,2,5
METU,1996,1,1,1,5,1.85,67,4,3,2,0,2,NA,1,2,36.7,36.8,36.75,39.91169739,32.84030151,70,3,10:17:55,3,2,1,1,NA,4,4,3,1,8,3,8,8,1,NA,2,8,1,NA,NA,8,1,NA,2,Siyasi,Siyasi,E?lence,NA,NA,7,4,2,NA,NA,5,3,2,4,3,5,2,4,4,2,5,3,5,2,4,3,3,1,2,2,3,2,2,4,4,1,2,3,3,3,4,3,2,4,2,3,2,3,2,3,3,2,2,2,2,2,2,1,1,2,2,7,5,2,2,2,2,2,3,1,2,1,6,2,1,5,1,2,3,3,2,2,3,3,2,1,1,2,2,2,2,2,2,5,5,5,5,5,5,3,5,5,7,7,7,7,7,7,7,2,2,2,3,2,2,4,1,5,2,2,2,2,2,3,2,2,4,4,2,1,4,1,4,2,5,4,2,3,2,2,4,4,4,3,4,4,2,5,1,5,3,5,3,2,5,4,4,4,4,4,4,4,3,3,3,3,4,4,4,3,2,4,3,5,2,3,3,4,3,4,4,4,4,2,4,4,4,2,4
Serbia,1996,2,1,2,6,1.66,59,4,2,0,0,2,NA,1,2,36.8,36.7,36.75,44.81860352,20.46809387,70,1,10:01:47,6,1,2,1,NA,4,4,5,NA,5,3,4,3,1,NA,2,7,1,NA,NA,1,2,5,1,NA,NA,NA,NA,NA,NA,NA,NA,NA,NA,4,2,2,5,3,2,1,1,2,2,3,5,4,4,5,5,3,4,4,3,5,2,2,2,5,4,5,3,4,1,4,3,3,3,4,4,4,4,3,3,2,1,3,3,2,3,3,4,4,4,5,8,8,3,5,3,2,4,2,5,2,2,2,5,2,2,NA,8,NA,2,3,4,4,3,3,NA,5,3,5,6,6,NA,3,5,5,5,5,5,5,4,5,5,6,7,7,5,7,6,6,3,3,1,3,2,1,4,1,1,4,1,2,1,2,2,2,5,6,6,1,4,3,6,2,3,3,3,2,4,3,2,4,4,3,2,2,3,2,2,4,4,4,4,4,4,3,3,2,2,4,3,4,3,3,2,2,4,4,4,4,2,2,2,3,4,3,3,2,3,4,4,3,4,2,4,4,2,2,3,2
Serbia,1996,2,1,1,1,1.69,60,4,2,1,0,1,7,1,2,36.5,37,36.75,44.81860352,20.46809387,83,4,11:20:18,6,1,2,1,NA,4,4,4,1,3,2,6,6,1,NA,2,8,1,NA,NA,1,1,NA,2,Udruzenje studenata psihologije,Petnica,Centar za promociju nauke,NA,NA,5,7,3,NA,NA,5,1,4,2,2,3,2,1,2,5,3,2,4,2,3,2,2,1,1,1,5,2,1,5,4,2,2,4,4,4,4,2,2,2,4,4,4,3,4,3,2,1,2,2,4,2,2,1,1,1,1,1,8,2,1,1,2,1,1,1,8,1,7,1,2,7,1,7,1,1,2,1,1,NA,1,1,1,NA,1,7,5,1,NA,5,5,5,5,5,5,5,5,4,5,6,5,4,5,5,6,1,1,1,1,2,1,1,1,2,1,2,1,3,1,1,1,4,4,4,1,2,3,6,1,1,1,5,4,5,2,3,5,1,1,2,5,5,3,4,5,5,5,5,5,3,5,4,1,1,2,2,1,5,1,5,1,4,4,3,4,4,2,2,3,4,4,4,1,5,5,5,5,4,3,5,5,4,4,2,4
Tsinghua,1996,2,2,2,7,1.67,58,2,2,0,0,2,0,1,2,36.7,36.8,36.75,30.58009338,114.273407,65,16,09:29:50,7,3,2,1,0,4,4,5,0,8,6,7,6,1,3,2,8,1,3,5,8,2,4,1,°à¼¶,ÉÌÒµ,Ö¾Ô¸,Ñ§Éú¹¤×÷,±çÂÛ,NA,6,NA,5,4,2,3,2,3,4,4,2,4,3,2,2,1,2,3,4,4,2,3,2,3,2,3,3,3,4,4,3,3,4,2,3,2,4,4,4,5,4,4,4,4,2,2,2,3,3,2,4,5,6,5,5,5,4,4,5,4,3,4,4,5,3,7,3,6,3,5,3,6,3,3,5,4,1,4,3,3,3,3,6,3,5,3,3,4,4,4,5,5,5,5,4,4,5,2,2,4,4,5,5,4,2,2,3,2,3,4,3,4,3,4,2,3,2,4,2,3,4,4,4,4,3,4,2,2,4,4,2,3,3,2,4,4,3,1,2,4,3,3,3,4,2,2,3,3,4,2,3,4,5,3,4,4,2,2,3,2,4,4,3,3,2,4,2,4,4,2,3,4,3,2,2,4,4,3,3,4,4,2,4
Serbia,1996,2,1,1,1,1.64,47,4,2,8,0,2,NA,1,2,36.7,36.8,36.75,44.61529541,21.18249512,78,9,10:53:12,6,1,2,1,NA,4,2,4,1,2,2,8,8,1,NA,2,8,1,NA,NA,1,1,NA,1,NA,NA,NA,NA,NA,NA,NA,NA,NA,NA,3,1,1,5,5,4,4,1,1,3,2,5,5,3,3,4,2,2,2,2,3,2,3,4,4,3,2,4,4,4,4,2,2,4,4,4,4,4,4,5,3,2,2,4,2,3,5,5,1,2,5,7,3,2,8,1,1,NA,2,2,1,1,8,2,1,1,1,3,1,3,1,1,NA,5,1,1,NA,1,1,4,5,1,NA,4,4,4,5,4,2,2,3,3,2,2,2,1,2,1,2,1,1,2,1,2,1,2,2,1,1,1,1,1,2,2,1,5,7,6,1,6,6,7,2,2,3,4,3,4,2,3,3,4,4,4,2,4,2,3,4,4,3,5,4,4,5,4,1,2,1,1,3,3,2,4,1,3,2,4,3,2,1,3,2,3,4,4,1,4,4,4,4,4,1,4,4,4,4,5,5
Tsinghua,1996,2,1,2,1,1.58,46,2,2,0,0,2,0,1,2,36.8,36.7,36.75,30.58009338,114.273407,74,16,10:46:21,7,3,2,1,0,4,4,5,0,8,2,6,3,1,1,2,8,3,1,8,2,2,1,1,Ñ§Éú»á,NA,NA,NA,NA,NA,NA,NA,NA,NA,2,5,4,3,4,4,1,3,3,3,3,2,3,4,3,4,3,2,3,2,3,3,3,3,3,2,3,4,4,4,4,4,3,4,4,5,4,5,4,4,5,3,3,4,3,3,4,5,1,1,2,6,4,4,2,2,3,3,4,2,2,7,4,5,1,2,1,2,2,3,2,6,2,2,2,2,3,2,2,2,1,1,3,5,5,3,5,5,4,5,5,5,6,3,3,6,6,6,6,2,2,3,2,4,3,4,3,4,2,2,2,2,2,2,2,5,5,4,6,3,3,3,3,3,4,4,2,3,2,2,2,4,3,2,3,4,3,2,2,4,3,3,4,4,4,3,4,4,5,4,4,5,2,2,2,4,4,4,2,1,2,4,2,2,4,3,2,4,4,4,3,4,5,4,5,3,4,2,4
Tsinghua,1996,2,1,1,7,1.65,53,2,2,4,0,2,0,1,2,36.8,36.7,36.75,30.58009338,114.273407,71,16,09:58:15,7,3,2,1,0,4,4,5,0,8,1,8,4,2,1,1,8,1,1,1,1,2,1,2,NA,NA,NA,NA,NA,NA,NA,NA,NA,NA,3,3,2,4,4,2,1,2,2,2,3,2,2,4,3,4,4,4,4,4,4,5,5,3,4,5,4,5,5,4,4,4,4,4,4,5,5,5,5,5,5,5,5,4,4,3,5,6,6,6,6,6,4,2,4,6,4,4,2,6,3,4,6,6,3,3,2,2,2,2,4,2,2,2,2,4,2,2,4,2,1,4,4,4,4,4,4,4,4,4,4,4,4,1,5,5,5,5,5,5,5,3,4,4,3,4,2,3,4,4,3,3,2,2,1,3,3,6,2,3,4,2,1,5,4,4,2,3,2,4,3,4,2,1,3,5,4,2,4,4,2,2,2,3,4,2,2,4,4,2,4,4,2,2,2,2,4,4,2,2,2,4,3,4,4,2,2,4,4,3,4,2,2,2,4,3,2,2,4
Poland,1996,2,2,1,7,1.65,49,4,2,60,10,1,10,1,2,37,36.6,36.8,NA,NA,85,3,11:26:18,9,1,1,1,NA,4,4,3,3,3,2,3,2,1,NA,2,8,2,1,1,1,1,NA,1,NA,NA,NA,NA,NA,NA,NA,NA,NA,NA,1,2,4,4,5,3,4,5,4,2,4,4,2,3,4,5,4,4,3,3,4,2,3,5,4,3,4,2,2,2,2,2,1,2,2,2,2,2,2,2,2,2,2,2,3,2,2,2,2,5,2,6,1,2,3,4,3,5,5,2,2,1,7,7,2,5,6,5,1,5,1,1,6,3,6,2,6,6,2,6,6,5,5,2,3,4,3,3,2,2,4,2,6,4,3,3,7,6,6,4,4,1,5,5,4,4,2,5,4,5,3,4,2,2,2,5,7,7,6,6,5,4,1,4,3,4,1,5,2,1,4,5,4,2,4,4,3,2,4,2,4,5,2,3,5,5,5,4,2,4,3,2,1,5,3,1,1,4,2,1,2,3,1,3,4,4,1,4,4,4,4,2,4,3,4,4,2,5,4
Oslo,1996,2,1,1,7,1.73,63,3,2,5,0,2,NA,1,2,36.7,36.9,36.8,NA,NA,61,1,11:17:01,4,1,1,1,NA,4,4,4,4,5,3,7,7,2,1,2,8,1,NA,NA,2,1,NA,1,NA,NA,NA,NA,NA,NA,NA,NA,NA,NA,2,3,2,4,4,4,3,4,3,3,4,4,4,2,3,4,2,1,2,2,4,2,2,3,5,2,3,2,1,1,4,4,1,2,2,2,4,2,2,4,2,1,2,3,2,1,2,2,1,1,2,4,2,1,2,2,1,2,1,1,1,1,1,5,1,1,1,2,1,1,1,1,1,1,1,1,2,1,1,1,1,1,2,5,5,5,5,5,5,4,5,5,4,5,4,4,4,3,3,2,2,1,2,2,2,2,2,1,1,2,3,2,2,2,2,4,5,5,1,2,2,1,2,2,2,4,4,3,3,3,2,2,2,1,2,4,5,2,2,2,3,3,5,3,4,4,5,5,5,4,4,4,1,1,1,1,1,4,4,1,2,3,3,4,2,2,2,4,4,2,4,2,2,4,5,1,2,2,3
Serbia,1996,2,1,2,7,1.75,60,3,2,12,0,1,15,1,2,36.8,36.8,36.8,44.81860352,20.46809387,45,12,10:28:39,6,1,2,1,NA,4,4,5,NA,3,2,7,7,1,NA,2,8,1,NA,NA,2,1,NA,2,Studentski klub,NA,NA,NA,NA,7,NA,NA,NA,NA,4,1,4,2,2,2,2,2,4,1,2,2,4,4,4,4,3,2,3,3,2,2,3,5,5,2,3,1,1,2,3,4,2,1,5,3,4,4,4,4,3,1,1,1,1,4,4,2,2,3,5,8,4,5,2,NA,4,NA,2,3,2,2,8,5,5,2,NA,5,NA,2,3,5,NA,NA,NA,NA,NA,NA,2,6,6,3,4,4,4,4,5,4,3,2,2,2,2,3,2,2,2,2,2,4,4,3,4,4,2,4,4,3,4,4,3,4,2,4,2,3,2,4,1,3,4,5,2,3,2,4,1,4,2,2,5,4,2,4,1,1,4,4,4,2,3,3,2,4,3,2,3,2,2,4,4,2,4,3,3,4,4,4,4,2,2,4,3,4,2,1,1,3,4,2,2,2,2,4,4,4,2,2,2
Serbia,1996,2,1,2,6,1.67,53,4,2,0,0,2,NA,1,2,36.6,37,36.8,44.81860352,20.46809387,44,12,09:54:26,6,1,2,1,NA,4,4,5,NA,4,2,6,6,1,NA,2,8,1,NA,NA,2,2,4,2,Mind the Mind volonteri,NA,NA,NA,NA,3,NA,NA,NA,NA,5,1,5,3,3,2,2,4,4,3,1,1,2,3,5,5,2,2,3,3,5,2,4,4,5,2,5,4,4,2,3,3,3,2,3,2,4,1,4,2,3,1,2,1,2,2,4,3,2,4,2,5,4,2,4,3,4,3,3,3,2,8,3,5,4,7,4,7,NA,8,8,8,5,5,5,NA,5,3,5,7,6,7,3,4,4,5,4,4,4,4,3,4,7,5,5,5,7,7,7,5,5,2,5,4,3,4,5,5,5,4,2,2,3,5,2,5,6,4,4,4,4,6,3,3,1,4,4,1,3,3,2,3,2,4,2,2,5,3,3,3,4,2,4,2,2,4,2,2,1,2,2,4,2,2,3,1,1,3,3,4,4,2,4,3,4,2,2,2,5,2,2,4,4,4,3,4,4,3,4
Tsinghua,1996,2,1,1,7,1.6,43,3,2,1,0,2,0,1,2,36.7,36.9,36.8,30.58009338,114.273407,74,16,10:37:45,7,3,2,1,0,4,4,4,1,8,3,8,4,1,1,2,8,3,1,8,4,2,1,2,NA,NA,NA,NA,NA,0,0,0,0,0,3,3,4,4,2,4,2,4,4,3,5,4,4,3,4,3,3,4,2,3,2,4,5,2,3,2,3,3,3,2,4,2,3,3,2,4,4,3,4,2,3,1,1,1,1,2,4,6,3,2,2,7,2,2,6,4,1,4,2,1,3,5,4,6,5,7,3,4,2,5,5,3,2,2,4,3,6,2,2,5,5,1,6,5,5,4,3,5,5,5,4,5,3,3,4,3,2,2,4,2,3,1,4,2,3,4,3,3,3,2,2,4,1,2,2,1,6,4,2,2,2,2,3,4,4,4,1,2,4,3,2,5,3,1,3,4,4,3,4,3,3,2,3,4,4,2,2,4,4,3,4,4,2,2,2,3,4,4,3,4,2,4,3,4,4,2,2,4,3,2,2,2,3,2,4,2,3,2,2
Serbia,1996,2,1,2,3,1.73,68,3,2,4,0,2,NA,1,2,36.8,36.8,36.8,44.81860352,20.46809387,65,10,10:13:46,6,1,2,1,NA,2,2,5,NA,6,4,6,5,2,1,2,6,1,NA,NA,2,2,4,1,NA,NA,NA,NA,NA,NA,NA,NA,NA,NA,5,3,2,5,1,1,1,3,2,4,2,1,3,3,4,5,2,2,1,2,2,2,2,3,5,2,3,4,4,2,4,1,2,4,1,5,4,5,4,4,4,2,3,5,2,2,4,8,5,5,8,8,2,2,8,5,2,NA,2,8,2,7,4,2,2,3,3,8,3,5,7,5,3,6,NA,NA,6,3,8,7,6,5,NA,5,4,4,5,5,5,4,4,4,7,6,7,6,7,6,7,4,4,1,4,2,3,4,4,5,2,2,1,3,2,2,2,5,4,5,1,6,6,6,4,2,2,5,4,5,5,5,2,2,2,4,4,2,4,2,4,5,4,5,4,4,4,5,1,2,2,4,2,4,2,2,1,1,1,4,4,4,4,1,2,4,4,4,1,4,4,4,5,4,4,5,4,4,4,4,4
Serbia,1996,2,1,2,6,1.7,71,4,2,0,0,2,NA,1,2,36.8,36.8,36.8,44.81860352,20.46809387,65,10,11:30:11,6,1,2,1,NA,4,4,5,NA,8,3,3,2,2,1,2,7,1,NA,NA,1,1,NA,2,AIESEC,NA,NA,NA,NA,7,NA,NA,NA,NA,3,2,4,5,4,4,3,2,4,3,3,4,4,2,3,3,2,1,3,2,2,2,2,3,4,2,4,3,3,4,3,3,3,3,3,4,4,4,4,3,3,3,2,2,2,3,4,2,2,2,2,4,2,2,2,3,2,NA,4,1,2,2,4,4,2,4,NA,5,NA,2,2,2,NA,NA,NA,3,NA,NA,2,6,4,NA,4,4,4,4,5,5,3,3,3,3,3,5,4,4,4,4,5,2,2,1,2,2,4,3,2,2,2,1,2,3,2,2,2,4,3,4,2,3,3,4,3,3,4,5,3,2,2,2,2,4,2,2,2,3,1,2,5,3,4,4,4,4,4,4,1,1,3,3,4,2,2,3,1,1,3,4,3,2,2,3,1,4,2,3,2,4,3,3,4,4,2,5,3,3,4,4,4
Tsinghua,1996,2,1,2,7,1.67,53,2,2,0.5,0,2,0,1,2,37,36.6,36.8,30.58009338,114.273407,87,17,10:40:25,7,3,2,1,0,4,4,5,0,4,3,6,3,1,1,2,8,1,1,1,1,2,1,1,ÎÄÑ§Éç,ÌìÎÄÉç,NA,NA,NA,1,2,NA,NA,NA,3,2,2,3,4,3,2,2,2,3,2,2,4,3,2,3,4,4,3,4,2,4,5,2,4,3,2,3,4,2,4,3,4,2,4,4,4,4,4,4,3,2,2,2,2,3,2,5,5,5,6,6,5,6,5,5,3,5,3,5,3,6,2,6,3,6,3,2,2,2,4,3,3,5,2,3,2,2,3,2,3,2,5,5,5,4,5,5,4,4,4,5,6,3,4,5,6,6,6,2,3,2,3,2,2,3,4,2,2,2,3,4,2,4,3,3,4,3,2,2,2,4,3,4,5,3,1,2,4,4,2,5,3,2,5,4,2,5,2,3,2,2,4,4,3,3,4,4,4,2,3,3,2,2,2,2,2,2,4,4,2,3,4,4,3,2,4,3,3,3,2,3,3,2,4,3,3,2,4
Serbia,1996,2,1,2,7,1.65,50,4,2,NA,0,2,NA,1,2,36.8,36.8,36.8,42.99809265,21.94610596,51,5,10:09:15,6,1,2,1,NA,4,2,5,NA,4,2,5,5,1,NA,2,8,1,NA,NA,1,1,NA,1,NA,NA,NA,NA,NA,NA,NA,NA,NA,NA,4,2,3,2,3,1,2,1,5,1,4,3,1,4,3,4,1,1,3,3,4,4,5,4,5,3,3,5,5,3,5,5,4,5,5,5,5,5,5,5,5,1,1,1,1,1,5,4,4,4,4,4,4,4,4,4,4,3,4,4,1,7,4,8,4,4,4,4,4,4,4,4,7,7,4,4,4,4,4,4,4,4,4,5,5,5,5,5,5,4,5,5,5,4,4,4,5,5,5,5,5,1,5,4,4,5,4,5,4,3,1,4,2,3,1,1,2,1,1,2,2,2,1,1,1,5,3,5,3,1,5,2,2,3,1,1,5,5,3,1,1,5,5,4,3,4,3,1,1,1,1,5,1,5,3,1,1,5,4,2,2,2,4,1,5,1,1,5,5,1,1,4,3,5,4,2,1,1,5
VCU,1996,2,1,2,7,1.6256,66.81818182,5,1,0,0,2,NA,1,2,36.77777778,36.83333333,36.80555556,37.55220032,-77.45819855,81,14.44444444,09:30:09,5,1,2,1,NA,4,4,5,NA,3,2,5,4,2,1,2,4,1,NA,NA,1,1,NA,1,NA,NA,NA,NA,NA,NA,NA,NA,NA,NA,4,4,4,4,4,2,3,2,4,5,4,5,4,2,2,3,1,1,1,2,2,2,2,3,5,2,2,2,3,2,2,3,2,2,4,4,3,1,3,3,1,1,1,1,1,1,2,2,4,2,2,2,2,2,2,2,2,2,2,2,2,2,2,3,2,2,2,2,2,2,3,3,4,3,2,3,2,2,2,6,2,2,3,1,1,1,1,1,1,3,1,1,3,5,4,4,4,3,2,1,1,1,2,1,1,1,1,1,1,1,2,3,3,1,5,3,3,3,2,3,4,1,3,4,4,4,2,3,3,3,3,4,3,2,4,3,3,4,2,3,2,1,4,4,4,3,2,4,4,4,3,3,2,2,2,2,4,3,4,2,2,3,3,4,2,2,3,4,4,3,3,2,4,3,2,2,2,3,1
VCU,1996,2,1,2,7,1.6002,65.45454545,2,2,4,2,2,NA,1,2,36.88888889,36.72222222,36.80555556,37.55380249,-77.46029663,81,14.44444444,10:38:44,5,1,2,1,NA,4,4,5,NA,4,2,4,4,1,NA,2,8,1,NA,NA,2,1,NA,2,Nurse Shadowing,NA,NA,NA,NA,1,NA,NA,NA,NA,3,2,3,3,3,4,4,4,2,3,5,4,5,3,3,4,2,3,2,3,3,3,3,3,4,2,4,2,4,4,4,2,2,4,2,2,4,4,4,4,4,2,4,2,4,3,4,3,4,4,5,3,6,3,5,5,3,5,3,4,3,3,3,5,3,3,4,5,4,4,4,5,5,5,3,3,3,3,5,3,5,5,3,5,4,4,4,5,4,4,4,3,6,5,4,6,5,5,4,4,4,4,4,4,4,4,2,4,4,2,2,2,3,4,3,3,4,3,3,2,4,4,1,4,2,4,2,5,3,3,4,5,2,1,3,3,4,2,3,2,3,2,4,4,4,3,4,4,4,4,3,3,3,2,3,2,5,4,4,2,2,4,3,4,4,3,2,4,4,2,2,4,4,4,3,3,4,2,2
VCU,1996,2,1,2,7,1.5748,72.72727273,3,2,4,0,2,NA,1,2,36.77777778,36.83333333,36.80555556,37.45350647,-77.47799683,94,13.33333333,09:36:37,5,1,2,1,NA,4,2,5,NA,6,4,3,3,2,1,2,3,1,NA,NA,1,1,NA,1,NA,NA,NA,NA,NA,NA,NA,NA,NA,NA,4,2,5,5,3,3,5,5,3,4,5,5,4,2,2,3,2,2,1,2,2,2,2,2,4,2,3,4,4,4,4,4,4,4,5,2,5,4,5,4,4,2,4,4,5,2,5,7,5,2,5,6,6,5,5,6,2,4,2,2,2,2,5,7,1,1,2,7,2,2,2,2,2,2,1,2,4,2,2,6,6,1,3,5,5,5,5,5,3,2,2,2,4,5,6,6,5,5,5,2,2,1,2,2,1,2,2,2,1,2,1,2,1,3,1,2,2,3,2,2,2,2,2,4,4,4,2,2,3,5,2,5,2,2,4,4,4,2,4,4,2,2,5,5,4,5,4,4,4,4,4,4,2,2,2,2,4,5,4,2,2,4,5,2,3,2,2,2,4,2,2,2,4,4,3,2,2,2,2
UCSB,1996,1,1,1,7,1.8288,68.18181818,1,1,1,0,2,NA,1,2,36.66666667,37,36.83333333,34.4329071,-119.8370972,83,13.33333333,10:25:00,5,1,2,1,NA,4,4,5,NA,4,3,8,8,1,NA,2,8,1,NA,NA,1,1,NA,2,Fraternity,NA,NA,NA,NA,50,NA,NA,NA,NA,2,2,2,5,2,1,2,2,2,2,4,5,5,3,4,5,2,2,2,2,4,2,4,4,4,4,3,1,4,1,4,4,4,2,1,4,4,4,4,4,4,2,2,4,4,3,4,2,2,1,5,1,4,4,2,3,1,6,1,2,1,2,1,5,1,1,2,1,2,1,1,6,2,2,2,1,2,2,1,2,3,2,2,4,4,4,4,4,2,2,2,2,6,5,5,5,5,5,5,2,2,1,2,3,3,2,2,2,1,2,3,2,2,4,2,4,5,6,3,3,5,5,2,4,4,4,4,4,4,3,4,4,3,3,4,4,2,2,2,2,4,4,3,2,4,4,4,4,4,4,4,4,2,2,2,2,2,4,3,3,2,4,3,4,4,4,2,4,4,4,4,4,2,4,4,3,4,2,2
UCSB,1996,2,1,1,7,1.6256,60,4,1,8,0,2,NA,1,2,36.77777778,36.88888889,36.83333333,34.4329071,-119.8370972,45,6.111111111,NA,5,1,2,1,NA,4,4,5,NA,4,1,7,5,1,NA,2,5,3,1,5,3,1,NA,2,VSA,Suitemates,Family,Friends,work,20,7,3,9,4,3,2,1,3,2,3,1,1,1,2,3,2,2,3,3,2,2,3,3,3,3,4,3,2,4,3,2,2,4,2,4,2,2,2,4,4,4,4,4,4,4,2,2,2,2,2,4,3,2,2,5,5,2,2,2,2,1,2,2,3,3,2,2,5,2,2,1,2,2,2,1,2,2,2,1,2,2,1,2,2,2,1,1,5,5,5,5,5,5,4,5,5,5,5,5,5,5,5,5,2,2,1,2,2,2,2,4,2,2,2,2,4,2,3,2,5,4,5,5,5,3,5,2,4,4,4,2,2,4,4,2,4,2,4,2,4,2,2,2,2,3,3,4,2,4,4,4,4,4,4,4,4,1,2,2,2,1,3,2,3,4,4,2,4,4,4,4,2,4,4,3,4,2,4,2,4,4,2,4
UCSB,1996,1,1,2,7,1.7018,59.09090909,5,1,1,0,2,NA,1,2,36.55555556,37.11111111,36.83333333,34.4329071,-119.8370972,80,8.333333333,NA,5,1,2,1,NA,4,4,5,NA,3,2,8,3,1,NA,2,4,1,NA,NA,2,1,NA,2,Climbing Team,-,--,-,-,6,0,0,0,0,2,4,4,1,2,4,2,4,2,5,5,2,3,4,2,5,2,4,3,3,3,3,3,4,5,1,4,4,4,2,4,4,3,1,2,5,5,4,5,5,2,1,3,2,4,1,4,4,4,4,5,5,5,3,6,4,3,6,6,5,5,3,3,7,3,5,5,5,3,3,4,1,4,6,4,3,5,3,1,4,4,3,4,5,5,5,5,5,4,4,5,5,6,6,6,4,6,7,6,2,4,1,4,2,2,4,2,1,4,3,2,2,1,4,3,2,3,4,2,2,2,2,2,4,4,4,2,2,2,3,2,4,3,2,4,4,2,4,2,1,1,3,5,3,5,4,4,4,4,5,5,4,3,4,3,2,2,3,4,2,2,4,2,5,2,2,3,4,4,4,4,4,3,4,4,5,2,2,4
Serbia,1996,2,1,2,6,1.67,63,3,1,0,0,2,NA,1,2,36.9,36.8,36.85,44.81860352,20.46809387,45,12,10:54:27,6,1,2,1,NA,4,4,5,NA,5,3,3,3,1,NA,2,8,1,NA,NA,2,1,NA,1,NA,NA,NA,NA,NA,NA,NA,NA,NA,NA,4,5,4,5,5,5,4,3,4,5,3,4,4,2,3,2,2,1,2,1,2,2,4,3,5,2,2,2,1,2,1,1,1,1,2,1,4,2,2,1,2,1,1,1,2,1,2,2,2,2,2,2,2,2,4,NA,2,NA,2,2,2,2,2,2,2,2,1,2,1,2,2,2,1,1,5,1,6,NA,2,6,6,1,1,4,4,4,4,4,4,2,3,3,3,2,3,2,2,2,3,2,2,1,2,1,2,3,2,2,1,2,2,2,2,1,2,5,4,5,2,2,3,4,2,2,1,4,3,4,3,2,4,4,2,2,3,3,4,2,4,4,4,4,4,4,4,4,2,2,1,2,4,4,2,2,3,2,2,4,2,4,2,2,4,3,2,4,4,3,4,4,4,4,4,4,2,3,2,2,4
Kassel,1996,2,1,1,6,1.68,57,2,2,0,0,2,NA,1,2,37.2,36.5,36.85,50.77940369,7.186798096,92,-2,11:09:06,1,1,1,1,NA,4,4,4,1,5,5,5,5,2,1,2,3,1,NA,NA,2,2,8,2,Fachschaftsrat Psychologie Uni Kassel,Pfadfinder,NA,NA,NA,10,2,NA,NA,NA,3,4,3,4,3,3,2,2,3,4,3,4,3,3,3,3,2,2,2,2,3,2,3,3,3,2,2,1,4,1,4,1,1,2,1,3,3,1,2,1,1,1,1,1,1,2,1,1,1,1,1,1,1,2,1,1,1,1,1,1,1,1,1,1,1,1,1,2,1,1,1,1,1,1,1,1,1,1,1,6,6,1,1,5,4,5,5,4,4,1,5,5,3,2,3,3,4,3,3,2,2,2,2,2,1,3,1,1,1,2,1,4,1,2,1,5,7,5,2,4,2,5,4,2,3,4,4,3,2,2,4,3,1,1,2,4,3,1,2,4,3,5,2,3,4,5,4,3,2,3,4,3,2,2,3,2,2,3,2,2,4,2,2,4,4,4,2,4,4,3,3,5,4,2,4,4,3,2,3
Oslo,1996,2,1,1,7,1.66,64,4,2,1,3,2,NA,1,2,36.4,37.3,36.85,59.9506073,11.01010132,96,0,09:59:00,4,1,1,1,NA,4,4,4,4,7,3,8,8,1,NA,2,8,3,1,4,5,1,NA,1,NA,NA,NA,NA,NA,NA,NA,NA,NA,NA,2,5,4,5,5,3,5,3,4,4,4,5,5,2,3,4,2,3,2,1,4,2,2,3,5,2,3,2,2,2,3,3,1,4,3,4,5,4,5,4,4,1,2,2,2,3,5,2,2,1,1,2,2,1,2,2,2,2,1,2,1,2,3,6,1,1,1,2,2,2,3,2,1,1,1,1,1,2,1,1,2,1,2,5,5,5,5,5,5,4,5,4,3,3,4,5,4,2,2,2,3,1,2,2,2,2,3,2,2,2,3,3,2,2,2,5,6,5,1,5,4,3,2,4,2,4,2,5,2,3,4,3,2,2,2,3,4,2,3,2,3,2,4,2,4,5,4,4,4,4,3,3,2,2,2,4,4,4,4,1,2,3,4,3,3,2,1,4,4,4,4,4,2,3,3,4,3,2,4
Serbia,1996,2,1,1,1,1.65,53,4,2,0,0,2,NA,1,2,36.9,36.8,36.85,44.81860352,20.46809387,75,4,11:25:43,6,1,2,1,NA,4,4,5,NA,2,2,2,2,1,NA,2,8,1,NA,NA,3,1,NA,1,NA,NA,NA,NA,NA,NA,NA,NA,NA,NA,3,1,3,5,4,5,1,2,4,3,2,2,2,2,5,3,3,3,2,2,3,3,3,5,4,1,3,2,3,4,4,3,2,4,2,5,3,4,2,1,2,2,3,3,3,3,1,1,2,1,2,2,3,1,1,1,2,NA,2,1,4,2,8,2,1,2,1,8,1,2,1,1,6,1,NA,1,NA,1,1,6,6,3,1,5,3,3,5,5,3,4,3,3,5,4,6,5,5,5,6,4,2,1,3,2,2,2,2,2,4,2,1,2,1,3,1,4,7,4,1,4,3,6,1,3,2,4,1,4,2,2,5,4,3,4,2,2,4,5,4,5,4,5,3,3,4,4,1,1,1,4,4,4,2,2,1,3,3,4,3,2,2,3,2,5,4,4,1,1,5,3,4,4,2,5,5,2,3,2,2
Serbia,1996,2,1,1,5,1.75,75.4,3,1,4,0,2,NA,1,2,36.8,36.9,36.85,44.81860352,20.46809387,61,1,09:42:57,6,1,2,1,NA,4,4,4,1,2,3,4,4,1,NA,2,8,1,NA,NA,2,1,NA,1,NA,NA,NA,NA,NA,NA,NA,NA,NA,NA,4,4,4,5,5,4,4,5,5,3,4,4,4,3,4,4,3,4,4,3,5,3,3,4,4,2,4,3,3,4,4,3,4,4,4,4,2,4,3,2,3,2,2,2,1,2,3,5,3,5,5,5,4,8,4,4,4,5,3,2,3,8,5,4,2,5,4,8,3,3,3,3,6,4,NA,NA,NA,NA,4,6,5,4,4,4,3,4,4,4,4,4,4,3,5,5,4,2,5,5,4,4,4,2,3,4,3,4,4,5,4,4,2,2,2,5,2,3,4,3,2,3,3,3,1,5,4,2,1,4,5,4,4,5,5,4,1,1,5,5,2,3,2,4,3,3,2,2,3,2,3,4,5,4,4,5,4,2,4,4,4,5,2,3,4,4,4,2,2,4,4,2,2,2,4,5,1,2,2,2,4
UCSB,1996,1,1,1,7,1.8796,80,4,1,32,0,2,NA,2,1,36.38888889,37.33333333,36.86111111,34.4329071,-119.8370972,86,12.22222222,10:25:00,5,1,2,1,NA,4,4,4,1,2,2,5,5,1,NA,2,8,3,1,8,1,1,NA,1,NA,NA,NA,NA,NA,NA,NA,NA,NA,NA,3,1,4,5,4,2,2,2,3,1,4,3,3,4,2,3,2,2,3,2,3,2,3,3,5,3,3,2,2,2,2,2,2,3,2,4,2,2,2,2,2,1,1,1,3,1,1,2,2,2,2,1,2,2,2,1,2,2,2,2,2,2,1,2,2,3,2,2,2,2,2,2,2,2,2,3,2,2,2,2,2,2,2,4,5,5,5,5,4,4,4,4,4,5,4,3,5,5,5,3,3,1,2,2,3,4,3,2,2,2,2,3,1,3,2,4,5,4,2,2,6,6,2,3,4,4,3,2,4,5,3,5,2,2,4,4,2,3,2,1,4,4,4,4,4,5,5,5,4,4,5,5,2,2,2,2,2,3,2,2,1,2,3,2,2,3,2,4,4,4,4,5,2,4,4,2,2,2,3
UCSB,1996,2,1,2,5,1.651,59.09090909,2,1,0,0,2,NA,1,2,36.88888889,36.88888889,36.88888889,34.50210571,-120.1287003,64,6.111111111,NA,5,1,2,1,NA,4,4,5,NA,2,2,6,5,1,NA,2,8,3,1,8,1,1,NA,1,NA,NA,NA,NA,NA,NA,NA,NA,NA,NA,3,2,2,2,2,2,2,3,4,4,2,3,3,5,3,4,2,3,3,3,5,3,5,3,5,2,4,5,5,4,5,5,5,5,5,5,5,5,5,4,5,3,3,5,4,5,5,6,5,3,5,3,6,7,4,3,2,3,5,3,2,5,5,6,2,6,5,3,4,3,2,4,3,4,2,4,6,2,4,3,2,3,6,4,2,4,2,3,3,3,2,3,5,5,6,4,5,5,5,2,4,2,4,2,3,2,4,2,2,2,2,4,2,4,2,3,3,3,2,2,4,1,1,4,2,5,5,3,5,4,4,2,4,3,3,4,4,2,3,4,2,2,5,3,3,2,2,2,2,3,2,4,3,3,4,2,2,3,2,2,4,3,2,4,3,2,4,3,4,2,2,2,4,3,3,2,3,1,4
Serbia,1996,2,3,2,4,1.72,63,4,2,5,0,2,NA,1,2,36.9,36.9,36.9,44.81860352,20.46809387,56,6,11:26:18,6,1,2,1,NA,4,2,5,NA,1,NA,5,5,1,NA,1,NA,1,NA,NA,2,2,2,2,udruzenje gra?ana,Crveni krst,NA,NA,NA,6,4,NA,NA,NA,4,3,3,3,3,3,2,2,2,3,3,2,3,2,3,2,1,2,1,3,3,2,2,2,5,2,2,1,1,1,1,1,1,2,1,2,3,3,4,2,1,1,1,3,1,1,4,3,8,4,5,7,7,4,5,6,3,7,5,1,3,1,5,5,5,2,1,2,1,1,1,2,3,NA,5,5,6,6,1,6,4,1,6,5,3,4,4,4,2,1,1,1,4,7,7,6,7,7,6,1,1,1,1,1,2,1,1,1,1,1,4,1,1,1,1,4,6,7,1,3,6,6,1,2,1,5,5,3,3,3,4,2,2,2,2,3,4,2,5,5,5,3,2,5,4,2,1,4,1,1,2,5,1,4,2,1,2,4,2,3,2,2,2,4,1,2,4,4,4,4,4,3,5,3,2,5,2,1,3
Poland,1996,2,1,1,7,1.55,43,4,2,40,0,2,NA,1,2,36.7,37.1,36.9,52.25,21,75,0,10:57:19,9,1,1,1,NA,4,4,4,4,4,4,5,3,1,NA,2,8,2,1,1,1,1,NA,1,NA,NA,NA,NA,NA,NA,NA,NA,NA,NA,3,4,4,4,5,5,1,2,4,4,3,5,1,4,2,4,3,3,3,3,3,2,3,4,3,3,4,4,4,2,4,2,1,2,2,4,4,4,5,4,4,2,2,2,2,2,2,5,5,2,2,2,2,5,3,3,2,3,5,2,2,2,7,7,2,2,2,6,2,2,1,2,2,6,2,2,2,2,2,6,6,2,5,5,5,4,5,4,5,5,5,5,4,6,6,6,6,4,4,2,2,1,2,2,2,3,2,2,2,2,2,1,1,1,2,4,8,7,6,6,6,6,1,4,1,5,2,2,2,2,4,4,2,1,2,4,4,1,4,2,2,5,3,5,1,5,5,5,5,4,5,5,1,1,1,1,4,4,4,1,2,3,2,5,2,5,2,5,5,5,2,5,1,5,5,5,4,2,4
Tsinghua,1996,2,1,2,7,1.68,49,3,2,4,0,2,0,1,2,37,36.8,36.9,30.58009338,114.273407,90,13,11:07:00,7,3,2,1,0,4,4,5,0,8,1,3,1,1,1,2,3,2,1,1,4,2,1,2,ÔºÖ¾Ô¸ÕßÐ­»á,¶ÁÕß¾ãÀÖ²¿,NA,NA,NA,NA,1,NA,NA,NA,3,4,2,3,4,4,1,3,3,2,4,3,3,2,3,3,2,3,2,2,3,2,4,3,5,3,2,4,2,1,4,1,3,3,5,4,4,4,3,3,2,1,1,2,1,4,2,6,6,3,6,6,5,5,6,3,6,3,4,6,5,6,5,5,2,5,2,5,3,2,3,5,2,3,1,2,2,2,6,3,3,2,2,4,4,3,5,5,4,5,4,4,2,2,5,4,3,4,2,2,4,2,4,4,2,4,4,4,3,2,2,2,2,2,1,4,4,4,2,5,3,2,2,5,4,4,2,2,1,2,3,5,3,1,2,4,4,1,4,5,2,2,4,4,4,3,3,4,5,2,4,4,2,3,2,2,1,1,3,3,2,4,3,4,5,3,4,5,2,3,2,3,2,1,5,4,4,2,3
SMU,1996,2,1,1,6,1.6,45,3,2,2,0,2,NA,1,2,37,36.8,36.9,1.293106079,103.8558044,71,26,09:22:45,5,1,2,1,NA,4,4,5,NA,1,NA,6,6,2,1,2,8,1,NA,NA,1,1,NA,2,"Community Service Project - still in the planning stages, not yet executed",NA,NA,NA,NA,6,NA,NA,NA,NA,3,5,2,4,3,4,3,3,2,4,4,5,2,3,3,4,3,2,2,3,3,3,3,4,4,3,4,2,4,2,4,2,2,4,4,4,4,4,4,4,4,2,2,2,2,2,4,2,2,2,2,2,2,2,2,2,3,2,2,2,2,2,3,2,2,4,2,3,2,2,2,2,2,2,2,2,2,2,2,2,2,2,2,4,4,4,4,4,4,4,4,4,3,5,5,5,4,4,5,2,2,2,2,2,2,4,3,2,2,2,2,2,2,2,2,3,3,6,2,3,2,4,2,1,4,3,2,3,4,4,4,4,4,2,4,4,4,4,3,2,4,4,3,2,4,4,4,4,4,4,4,4,2,2,2,4,2,4,2,2,4,2,3,4,3,4,3,4,4,4,4,4,2,4,4,4,4,4,4
Serbia,1996,2,3,2,7,1.62,51,3,2,7,2,2,NA,1,2,36.8,37,36.9,44.81860352,20.46809387,83,4,13:04:53,6,1,2,1,NA,4,4,5,NA,5,5,4,4,1,NA,2,8,1,NA,NA,2,1,NA,1,NA,NA,NA,NA,NA,NA,NA,NA,NA,NA,5,3,2,2,2,4,5,3,2,1,2,3,4,3,4,4,2,2,2,3,3,2,3,4,4,2,3,4,4,2,5,4,2,4,5,5,4,4,4,4,4,4,4,4,3,4,5,8,8,4,8,7,5,8,8,4,2,NA,5,4,8,5,8,2,2,8,NA,5,1,2,2,2,3,NA,NA,NA,NA,NA,2,4,3,NA,NA,5,4,5,5,3,5,2,5,5,3,6,4,4,6,4,5,2,2,2,2,3,2,3,2,2,3,1,1,2,1,3,2,2,6,4,3,4,4,5,4,4,5,2,1,2,1,1,4,5,5,5,2,2,5,5,2,4,3,4,3,1,3,3,2,2,2,4,5,3,5,2,1,2,4,4,4,3,2,3,4,3,4,2,3,4,5,2,2,5,4,5,2,5,4,1,5
METU,1996,2,1,2,7,1.64,52,3,2,5,NA,1,7,1,2,36.8,37.1,36.95,39.91169739,32.84030151,64,2,10:27:52,3,2,2,1,NA,4,2,5,NA,3,1,1,1,1,NA,2,6,1,NA,NA,1,1,NA,1,NA,NA,NA,NA,NA,NA,NA,NA,NA,NA,4,3,3,1,4,4,1,4,3,3,2,3,3,4,4,5,3,2,2,4,4,3,4,5,4,3,4,2,2,2,2,2,2,2,2,2,2,2,1,2,2,1,1,1,1,1,2,7,7,6,7,6,7,7,7,6,5,7,4,7,4,6,7,7,3,6,2,6,3,4,2,4,2,2,3,3,6,6,2,4,4,2,7,3,1,3,2,1,2,3,1,1,6,5,3,5,5,4,5,3,2,1,3,2,3,4,4,1,3,2,2,2,4,3,4,4,7,4,6,6,5,1,1,3,2,5,2,4,3,2,5,3,3,1,1,2,5,1,5,4,2,5,4,5,4,3,2,2,1,4,1,1,3,5,1,5,2,2,2,4,1,4,4,4,2,5,2,2,2,2,3,3,3,4,2,1,2,4,5
Tsinghua,1996,1,1,2,7,1.8,65,2,2,2,0,1,5,1,2,36.8,37.1,36.95,30.58009338,114.273407,61,10,10:19:16,7,3,2,1,0,4,4,5,0,8,1,8,5,1,1,2,8,1,8,1,1,2,5,2,°à¼¯Ìå,ÇàÄê´«²¥ÖÐÐÄ,NA,NA,NA,24,4,NA,NA,NA,3,3,4,2,2,3,3,2,3,3,3,3,2,2,2,2,3,4,3,4,3,3,3,4,3,4,3,3,4,3,2,3,3,3,4,1,4,2,3,4,3,3,4,3,4,3,2,5,3,4,4,4,4,4,4,5,3,4,4,3,3,5,4,4,4,5,4,3,5,4,4,3,4,4,4,3,4,4,4,4,5,3,4,3,3,3,3,2,3,5,3,3,3,3,3,3,5,3,4,3,3,4,2,3,3,2,3,3,3,2,3,3,3,2,3,4,4,4,3,4,3,5,3,3,4,4,2,2,3,3,3,4,2,2,1,3,3,3,3,3,4,2,3,3,3,2,4,3,3,2,3,3,2,3,4,3,3,2,2,4,4,2,3,4,2,3,4,3,2,3,4,2,3,4,3,2,3,4,2
Tsinghua,1996,2,1,2,7,1.65,48,2,2,4,0,2,0,1,2,37.1,36.8,36.95,30.58009338,114.273407,87,17,10:50:40,7,3,2,1,0,4,2,5,0,5,1,4,4,1,1,2,7,1,1,2,1,2,1,1,ºþ±±´óÑ§ÊÐ³¡ÓªÏúÐ­»á,NA,NA,NA,NA,1,NA,NA,NA,NA,2,3,3,4,3,3,2,2,2,4,2,3,4,4,3,4,2,3,2,4,2,2,4,3,4,2,2,3,4,2,4,3,3,2,3,4,5,4,4,5,4,2,4,2,3,3,3,5,4,3,4,7,5,5,5,5,4,6,3,4,4,7,5,6,4,6,1,5,4,4,3,5,3,5,2,4,5,2,4,2,2,1,4,3,5,4,3,5,5,5,5,5,6,4,5,4,4,5,5,3,4,3,4,4,3,4,3,3,2,3,2,3,2,4,2,5,5,6,2,3,2,2,4,5,5,4,1,2,4,3,3,5,4,2,4,4,2,5,4,3,2,3,4,4,3,3,3,5,5,3,4,3,2,1,2,4,4,4,2,3,2,4,3,4,4,4,3,5,3,5,5,3,4,3,5,3,4,2,4
SMU,1996,2,1,2,7,1.67,52,3,2,5,0,2,NA,1,2,36.6,37.3,36.95,1.293106079,103.8558044,79,26,11:41:14,5,1,2,1,NA,4,4,5,NA,2,8,6,5,2,2,2,8,2,2,1,1,2,4,2,People for animal welfare,NA,NA,NA,NA,3,NA,NA,NA,NA,3,3,2,3,2,3,2,3,2,4,4,3,2,4,5,4,2,2,2,2,4,2,2,5,4,2,4,4,4,3,4,3,4,4,3,4,4,4,4,4,4,4,4,4,4,4,4,4,5,5,5,5,6,5,2,5,5,6,4,4,4,5,3,5,4,4,3,5,3,3,6,5,3,3,3,3,3,3,3,3,4,3,4,5,5,5,5,5,5,5,5,5,5,6,6,6,6,6,6,3,3,2,2,3,4,4,2,2,3,3,2,2,1,2,2,3,4,6,3,3,3,4,4,4,4,4,2,3,3,3,3,5,4,2,4,5,5,4,4,4,3,3,5,5,4,4,4,3,4,4,4,4,3,3,3,1,4,4,4,4,4,4,4,4,5,3,3,4,4,3,3,4,3,4,3,4,3,1,4
Tsinghua,1996,2,1,2,7,1.62,57,2,2,16,0,2,0,1,2,36.7,37.2,36.95,30.58009338,114.273407,66,13,10:32:10,7,3,2,1,0,4,4,5,0,8,8,7,5,1,1,2,1,1,1,1,1,2,1,2,NA,NA,NA,NA,NA,NA,NA,NA,NA,NA,3,4,3,4,5,5,1,3,1,3,3,2,2,4,5,5,4,4,3,4,5,3,5,5,5,2,3,4,5,3,5,4,5,5,5,4,5,5,5,5,5,3,4,3,2,2,5,4,5,6,5,6,4,6,6,4,4,4,5,5,4,7,1,6,2,3,4,4,4,3,3,5,4,7,4,4,5,4,5,4,4,2,4,5,5,5,5,5,4,5,4,5,1,2,4,1,1,1,2,3,4,4,3,4,4,4,4,3,2,1,2,2,1,2,1,3,3,4,4,3,2,4,2,4,5,5,1,3,1,2,4,5,3,1,3,5,5,3,3,3,1,1,3,5,3,1,2,5,5,2,5,5,1,1,1,3,3,4,3,2,4,4,5,3,5,2,2,5,1,1,1,2,4,3,3,2,3,2,4
Poland,1996,2,3,1,4,1.56,60,4,2,11,1,2,NA,1,2,36.9,37,36.95,51.58329773,21.56669617,70,4,10:11:23,9,1,2,1,NA,4,2,4,1,6,4,4,4,2,1,2,4,6,1,4,1,1,NA,2,grupa fan¨®w zespo?u,NA,NA,NA,NA,2,NA,NA,NA,NA,2,4,1,3,4,4,2,4,3,2,3,4,3,5,5,5,3,3,2,3,5,1,3,5,5,2,5,5,5,5,5,5,5,5,5,5,5,5,5,5,5,4,4,4,3,3,5,6,6,6,6,7,6,6,6,6,2,2,7,6,7,6,6,7,4,2,3,6,4,4,4,5,3,4,3,2,6,4,5,4,5,5,5,4,4,4,3,4,5,5,5,5,7,6,6,6,6,7,7,5,4,5,4,5,5,5,4,5,4,5,2,3,1,5,3,5,7,7,6,6,7,6,2,4,2,5,1,4,1,2,4,4,2,2,5,5,3,3,5,1,5,5,4,5,5,5,5,5,4,4,4,5,3,3,3,4,3,5,5,1,2,4,4,3,4,5,2,2,4,5,5,5,2,5,5,5,5,2,5
UCSB,1996,2,1,1,7,1.6764,59.09090909,3,1,3,0,2,NA,1,2,36.94444444,37,36.97222222,34.4329071,-119.8370972,57,6.111111111,03:15:00,5,1,2,1,NA,4,4,5,NA,4,4,1,1,2,8,2,8,2,1,2,2,2,8,2,Yoga,na,na,na,na,7,0,0,0,0,5,2,5,5,4,4,3,4,5,4,5,5,5,4,4,4,2,2,2,3,3,3,2,2,5,2,3,4,4,3,5,4,3,3,4,4,5,4,5,4,4,1,2,2,3,2,5,1,1,1,2,1,1,1,1,2,1,1,1,1,2,1,1,1,1,3,4,4,2,1,1,1,7,7,2,1,1,3,1,2,5,2,2,5,5,5,5,5,5,5,5,5,3,5,5,5,5,4,4,1,1,1,5,2,3,4,1,2,3,2,2,2,2,5,2,5,7,6,1,1,5,6,1,3,2,5,5,4,4,2,5,4,1,1,1,1,4,1,2,1,4,4,4,1,4,3,4,4,4,4,4,4,1,1,1,3,4,5,5,2,2,2,1,4,1,1,1,5,4,5,5,1,3,2,1,1,3,5,3
UCSB,1996,2,1,2,7,1.7272,58.18181818,5,1,0,0,2,NA,1,2,36.94444444,37.01111111,36.97777778,34.50210571,-120.1287003,92,13.88888889,NA,5,1,2,1,NA,4,4,4,1,5,3,8,8,1,NA,2,8,1,NA,NA,2,1,NA,2,Sorority,NA,NA,NA,NA,30,NA,NA,NA,NA,2,3,3,3,1,4,3,3,1,2,4,2,2,3,4,4,3,3,2,2,3,3,3,3,3,2,3,4,3,2,2,2,1,2,2,4,4,2,4,4,2,1,1,1,1,1,4,6,4,3,6,7,7,7,5,6,6,3,5,5,5,1,4,5,1,2,1,3,1,2,2,2,1,5,1,1,1,1,2,1,3,1,3,4,4,3,5,4,2,2,3,3,7,5,6,6,6,6,6,4,4,1,4,4,3,5,4,3,4,4,2,4,2,4,3,3,5,5,3,3,3,3,4,4,4,4,2,3,4,4,3,5,3,3,4,4,3,3,3,2,3,3,3,4,5,4,4,5,3,5,5,3,2,2,2,1,5,4,2,1,2,5,3,4,4,4,3,3,5,3,4,3,1,5,2,3,3,3,4
Tsinghua,1996,2,1,2,7,1.66,59,2,2,0,0,2,0,1,2,37,37,37,30.58009338,114.273407,71,16,09:55:53,7,3,2,1,0,4,4,5,0,7,1,8,4,1,1,2,5,1,1,1,1,2,1,2,NA,NA,NA,NA,NA,NA,NA,NA,NA,NA,5,4,3,3,2,5,3,5,4,1,5,3,4,2,2,2,2,2,2,3,2,2,3,4,4,3,2,1,2,1,3,1,1,2,3,2,3,3,4,2,2,1,1,1,3,1,3,2,1,2,4,3,2,1,4,3,2,3,2,2,2,5,1,5,2,1,3,5,5,2,3,7,4,4,3,3,7,3,6,3,5,3,4,4,4,4,3,4,4,4,4,4,2,2,2,2,2,2,2,3,4,3,2,4,3,4,4,2,4,2,2,4,2,2,2,4,2,1,2,2,1,2,2,2,5,5,2,1,1,1,1,4,5,1,2,2,2,1,1,5,3,2,5,5,5,5,5,5,5,3,4,4,3,2,2,4,1,5,4,4,2,4,4,4,4,4,4,5,5,2,4,2,4,5,4,4,2,5,4
Serbia,1996,1,1,2,5,1.84,86.2,4,2,5,0,2,NA,1,1,36.9,37.1,37,44.81860352,20.46809387,45,12,10:38:16,6,1,2,1,NA,4,4,5,NA,6,6,8,8,1,NA,2,8,1,NA,NA,3,1,NA,1,NA,NA,NA,NA,NA,NA,NA,NA,NA,NA,3,4,3,4,5,4,1,3,2,4,2,4,5,3,4,3,2,2,2,2,3,2,2,4,4,2,2,1,3,3,2,2,1,3,1,2,2,1,3,2,2,1,2,1,1,1,3,2,2,2,5,2,4,2,4,NA,2,NA,2,3,1,1,1,2,1,2,NA,5,3,3,2,2,6,3,3,NA,3,3,2,6,NA,3,3,5,4,4,5,5,4,3,4,4,4,5,5,4,4,4,4,1,2,1,2,2,2,2,1,4,1,2,2,1,1,2,5,4,6,4,1,2,2,4,5,5,4,2,1,1,5,4,1,5,4,2,3,2,4,3,4,3,3,4,4,4,4,4,2,2,5,5,5,2,4,4,2,2,4,5,5,5,1,2,3,4,4,3,3,4,4,2,2,1,2,3,2,3,2,2,3
Serbia,1996,2,1,2,7,1.75,60,4,2,2,0,2,NA,1,2,37,37,37,44.81860352,20.46809387,65,10,09:52:27,6,1,2,1,NA,4,4,5,NA,6,5,5,4,2,1,2,8,1,NA,NA,3,1,NA,1,NA,NA,NA,NA,NA,NA,NA,NA,NA,NA,4,5,4,5,4,5,3,4,5,3,4,5,5,3,3,3,2,2,2,2,3,3,3,2,4,2,2,2,2,3,2,2,1,2,2,2,4,3,3,2,2,1,1,2,2,2,3,4,4,4,4,4,4,4,4,4,4,4,4,4,4,4,4,4,4,4,4,4,4,4,4,4,4,4,4,4,4,4,4,4,4,4,4,5,5,5,5,5,3,3,5,4,4,6,5,4,5,5,5,2,3,1,2,1,2,2,2,2,2,2,3,3,2,3,2,4,7,5,2,6,6,5,1,2,1,4,4,4,2,1,5,1,2,2,1,3,4,4,3,3,2,3,4,3,3,4,3,3,1,3,2,3,3,5,3,3,1,4,2,3,2,3,3,4,4,1,3,4,4,2,2,3,4,4,3,3,4,3,2
Poland,1996,2,3,1,7,1.55,53,3,2,2,0,1,9,1,2,37,37,37,52.25,21,46,0,10:39:28,9,1,2,1,NA,4,4,5,1,5,3,3,2,1,NA,2,8,6,1,8,1,1,NA,1,NA,NA,NA,NA,NA,NA,NA,NA,NA,NA,3,3,3,5,5,2,3,3,4,4,4,4,3,3,3,4,4,3,3,3,3,3,3,3,4,4,3,2,4,2,3,2,2,2,2,3,3,3,3,2,2,1,1,2,1,2,2,2,2,1,2,4,2,2,2,2,2,6,2,2,2,2,5,4,2,2,1,6,2,2,2,4,2,2,1,2,2,2,4,6,6,2,2,4,3,3,5,4,2,2,3,3,4,4,4,4,4,4,3,2,2,2,2,2,2,3,2,2,2,2,3,2,1,2,2,4,5,6,5,5,5,5,2,4,3,5,3,2,4,2,2,4,3,4,3,4,4,2,4,3,2,3,4,3,3,4,3,4,4,2,4,3,1,2,2,2,4,3,3,3,2,2,4,3,3,2,2,2,4,4,3,3,3,5,3,2,3,2,2
Tsinghua,1996,2,1,2,7,1.64,55,2,2,0,0,2,0,1,2,37.1,36.9,37,30.58009338,114.273407,72,14,10:38:28,7,3,2,1,0,4,1,5,0,5,3,5,2,1,1,1,5,1,1,1,5,2,1,1,ÍøÂç¹«»á,NA,NA,NA,NA,NA,NA,NA,NA,NA,4,4,4,4,5,2,1,4,2,4,3,3,4,3,2,3,3,4,3,4,3,3,4,2,4,3,2,4,4,2,4,5,4,5,2,5,2,2,2,3,2,3,2,3,2,3,2,4,6,3,5,7,2,6,4,3,4,2,3,3,4,2,2,5,2,2,2,6,3,2,6,7,5,4,2,2,3,2,6,2,2,4,3,3,2,4,3,3,3,4,3,3,3,4,3,5,7,6,5,5,4,2,3,2,3,5,4,3,2,2,2,4,2,3,2,3,4,3,2,4,2,4,4,3,4,3,2,1,2,2,2,5,4,2,4,5,4,4,3,3,2,2,4,4,4,3,4,4,3,2,4,3,2,3,1,4,2,4,4,5,3,3,3,4,4,3,4,5,4,3,2,4,2,4,3,4,4,2,3
Serbia,1996,2,1,1,1,1.57,55,3,2,0,0,2,NA,1,2,36.9,37.1,37,44.81860352,20.46809387,44,12,10:05:15,6,1,2,1,NA,4,2,5,NA,2,2,5,4,1,NA,2,7,1,NA,NA,2,1,NA,1,NA,NA,NA,NA,NA,NA,NA,NA,NA,NA,4,1,3,4,4,4,3,4,2,2,3,1,4,5,5,4,3,3,3,3,3,3,3,5,5,1,4,5,5,5,5,5,4,5,5,5,5,5,5,5,4,3,5,5,5,5,5,8,2,2,3,5,5,2,2,6,2,7,2,3,2,5,8,5,1,4,NA,7,1,3,1,1,6,1,4,NA,5,4,1,7,7,1,3,2,2,3,4,2,2,2,2,2,4,6,6,4,6,5,5,4,3,1,4,5,1,5,4,1,3,5,1,2,1,2,1,3,4,7,1,5,8,8,2,2,2,4,4,5,3,2,5,3,3,4,1,3,4,4,3,5,5,5,2,3,4,2,1,4,1,1,4,5,1,5,1,4,4,4,5,1,5,5,5,2,5,5,1,1,5,4,5,5,1,5,5,5,5,1,5
Tsinghua,1996,2,1,2,7,1.55,51,2,2,8,0,2,0,1,2,37.2,36.9,37.05,30.58009338,114.273407,87,17,11:09:50,7,3,2,1,0,4,4,5,0,8,1,8,6,1,1,2,8,1,1,8,1,2,2,1,½¡¿µ¾ãÀÖ²¿,ÃÀÊõÐ­»á,NA,NA,NA,7,4,NA,NA,NA,4,4,3,2,4,2,3,1,3,4,2,2,3,2,3,3,2,3,3,4,2,2,4,3,4,3,1,2,3,1,3,3,2,2,2,2,3,4,2,3,2,1,3,2,2,2,3,2,4,5,5,4,4,2,3,3,4,2,3,4,3,3,1,5,4,4,4,5,5,4,5,6,5,5,5,4,6,2,6,5,5,3,3,3,4,4,3,4,3,4,2,2,3,1,1,4,3,3,3,2,2,2,3,3,2,3,2,2,4,3,3,2,2,2,2,4,4,4,5,5,4,2,1,1,3,4,2,2,1,3,5,3,2,1,1,2,3,2,4,4,1,1,4,5,3,2,2,3,3,3,2,2,2,2,2,3,3,3,2,3,2,3,3,4,3,2,3,3,4,3,2,2,2,2,2,2,3,2,4
Tsinghua,1996,2,1,1,7,1.63,55,3,2,12,0,2,0,1,2,37.1,37,37.05,30.58009338,114.273407,100,14,11:02:33,7,3,2,1,0,4,4,5,0,3,3,3,3,1,1,2,8,1,1,3,1,2,1,1,×¨Òµ°à¼¶,Ñ§ÔºÀÏÊ¦,Ñ§Éú»á,ÇÞÊÒ,NA,7,3,2,3,NA,2,3,3,5,4,4,3,4,2,2,4,2,2,3,3,4,2,2,2,3,3,2,2,3,4,2,3,4,3,2,4,2,2,4,4,4,4,4,4,4,2,4,4,2,4,2,4,5,4,6,6,5,4,4,2,4,3,2,4,4,4,2,3,4,3,3,2,2,2,2,4,3,2,2,2,4,5,2,2,2,2,2,5,5,4,4,4,4,4,4,4,4,2,1,5,4,5,3,3,2,2,2,2,3,2,3,3,4,2,2,2,4,2,2,2,4,4,4,2,2,4,5,1,5,4,4,1,4,3,2,4,4,3,2,2,2,4,2,4,4,2,2,2,4,4,4,3,4,4,3,4,4,4,2,3,3,4,4,4,3,2,4,3,4,4,3,2,4,2,4,4,4,2,4,5,4,4,2,3
Serbia,1996,2,1,1,7,1.69,53.1,4,2,8,0,2,NA,1,2,37.1,37,37.05,44.7467041,19.69000244,83,4,10:19:56,6,1,2,1,NA,4,4,5,NA,6,3,7,7,2,1,2,8,1,NA,NA,2,1,NA,1,NA,NA,NA,NA,NA,NA,NA,NA,NA,NA,4,3,4,4,3,4,3,3,2,4,3,3,2,2,4,3,2,2,2,1,2,2,2,3,4,2,1,4,4,3,4,4,4,3,4,3,5,3,4,4,4,2,2,1,1,1,4,2,2,3,2,3,2,2,2,NA,5,NA,2,1,2,2,5,2,2,5,3,8,NA,3,5,2,3,NA,3,3,3,3,2,6,6,NA,NA,5,5,4,5,4,4,3,4,4,7,5,5,5,6,6,6,2,2,1,2,2,2,2,2,2,2,2,2,2,2,3,2,4,6,5,2,3,3,6,2,4,2,5,4,2,4,3,2,2,2,3,3,3,2,4,3,4,4,4,4,2,4,4,2,2,4,3,2,3,2,2,2,1,4,4,4,1,3,2,4,4,5,3,2,4,4,4,3,4,3,3,3,3,2,4,3
UCSB,1996,2,1,1,7,1.5748,54.54545455,3,1,2,0,2,NA,1,2,36.88888889,37.22222222,37.05555556,34.4329071,-119.8370972,58,10,11:00:00,5,1,2,1,NA,4,2,4,1,3,1,4,2,1,NA,2,6,1,NA,NA,1,1,NA,2,Hermanas Unidas,Sierra Madre Community Council,NA,NA,NA,6,4,NA,NA,NA,3,3,3,5,3,4,2,2,2,2,3,4,4,2,4,4,3,4,3,3,4,3,4,4,4,2,3,4,2,2,4,4,4,4,4,4,4,4,4,4,3,4,4,4,2,4,4,6,6,5,6,6,6,5,5,5,2,6,2,2,5,6,2,6,2,3,2,5,2,3,2,3,2,2,2,2,2,2,3,5,3,2,2,4,4,4,5,4,2,2,2,4,7,5,3,5,6,6,5,2,4,2,3,4,2,2,2,2,3,2,2,2,2,2,2,3,4,6,2,3,3,3,2,4,4,4,2,4,4,4,4,4,4,2,4,4,4,2,2,4,2,4,3,4,4,4,4,4,4,4,4,4,2,2,2,2,4,4,4,2,2,4,4,4,4,4,2,4,4,4,4,4,2,4,4,3,4,2,4
Tsinghua,1996,2,1,1,7,1.58,47,2,2,2,0,2,0,1,2,37.2,37,37.1,30.58009338,114.273407,87,17,10:09:28,7,3,2,1,0,2,2,5,0,5,2,5,2,1,1,2,3,1,1,5,2,1,8,1,Ö¾Ô¸ÕßÐ­»á,NA,NA,NA,NA,NA,NA,NA,NA,NA,5,5,4,3,5,5,2,4,2,3,4,4,4,2,1,2,2,3,2,4,2,1,5,1,3,3,2,4,3,2,2,2,2,2,4,4,4,4,3,4,2,1,3,2,2,1,2,5,3,1,2,4,3,3,2,6,2,4,3,5,2,2,3,3,4,2,2,4,3,2,4,3,2,2,3,2,2,3,2,4,4,3,3,4,4,4,4,4,4,3,3,4,4,3,4,3,4,4,3,1,1,2,2,1,1,3,2,2,1,1,2,2,2,2,3,3,3,5,2,3,2,2,3,4,4,3,2,3,3,1,3,4,2,2,2,2,2,2,1,3,1,2,1,3,4,3,4,4,4,3,4,4,2,2,2,3,4,4,5,2,1,4,3,4,3,2,2,3,3,2,2,4,2,2,3,3,3,4,2
Tsinghua,1996,1,2,2,2,1.85,75,1,1,1,0,2,0,1,2,37,37.2,37.1,30.58009338,114.273407,71,16,10:42:22,7,3,2,1,0,4,3,5,0,7,3,6,6,1,1,1,8,1,1,1,8,2,2,1,°à¼¶,na,na,na,na,10,NA,NA,NA,NA,3,3,2,4,4,4,2,2,2,2,4,1,2,4,5,5,3,3,2,4,4,4,4,5,4,3,5,4,5,4,4,4,5,4,4,5,5,5,5,5,4,4,5,5,5,3,5,6,6,6,7,6,4,6,6,2,4,5,4,6,5,6,6,6,6,5,2,3,2,2,2,2,2,3,2,2,2,2,4,2,2,2,5,4,4,4,4,4,4,5,5,5,5,2,2,6,7,7,7,4,3,4,4,2,4,3,2,4,4,4,2,2,2,4,2,3,5,7,4,4,5,6,2,2,5,4,2,4,4,5,5,4,2,4,4,4,4,4,4,4,4,4,3,5,5,5,5,5,3,4,5,4,2,2,2,4,4,4,4,3,2,4,4,4,4,4,3,4,4,3,4,4,2,4,5,3,3,4,3
UCSB,1996,1,1,1,7,1.8034,77.27272727,4,1,0,0,2,NA,1,2,37.16666667,37.05555556,37.11111111,34.4329071,-119.8370972,82,12.22222222,11:25:00,5,1,2,1,NA,4,2,3,2,3,1,5,1,1,NA,2,1,3,1,8,1,1,NA,1,NA,NA,NA,NA,NA,NA,NA,NA,NA,NA,5,4,5,4,4,4,1,4,2,4,4,5,5,4,2,3,2,2,2,2,2,1,2,2,5,1,1,2,4,1,4,1,2,3,3,2,4,4,3,3,2,2,1,1,2,2,4,2,2,2,2,2,2,2,2,2,1,2,4,2,2,4,3,4,2,3,2,5,3,3,3,3,3,2,2,3,3,3,2,6,7,3,3,4,5,5,5,5,4,4,4,4,4,4,4,4,3,3,2,2,2,3,2,2,2,2,3,4,2,2,2,1,3,2,3,4,4,3,4,2,4,3,2,2,2,4,4,3,3,3,4,2,2,3,2,3,4,2,2,4,3,3,4,4,2,3,4,3,3,3,3,3,2,2,2,4,2,3,4,2,2,4,4,4,4,2,4,2,4,3,3,1,2,4,3,4,4,2,3
SMU,1996,1,1,2,1,1.77,76,2,2,1,0,2,NA,1,2,37.5,36.8,37.15,1.293106079,103.8558044,70,26,10:23:18,5,1,2,1,NA,4,2,5,NA,6,3,8,6,2,8,2,6,1,NA,NA,1,1,NA,1,NA,NA,NA,NA,NA,NA,NA,NA,NA,NA,3,2,3,3,3,3,1,3,2,3,4,2,4,3,4,3,3,3,2,3,3,4,3,2,3,3,3,3,4,3,4,3,4,3,3,3,4,4,3,4,3,3,3,3,3,3,3,6,6,6,6,7,4,6,4,2,4,6,5,5,4,4,5,6,4,6,2,3,2,2,3,3,2,2,2,2,3,3,4,3,3,4,2,5,5,5,5,5,4,4,4,4,6,7,7,7,6,6,6,3,5,3,3,4,3,4,4,3,3,4,2,3,2,3,2,4,7,6,1,6,6,6,3,3,5,3,2,2,3,4,3,2,4,3,4,5,2,3,2,3,3,3,3,3,4,3,3,4,4,3,4,3,1,1,3,2,1,4,4,3,3,3,3,3,4,2,3,3,3,3,3,3,2,3,3,4,3,3,3
Serbia,1996,2,1,1,2,1.67,67,4,1,3,0,2,NA,1,2,37.3,37.1,37.2,44.81860352,20.46809387,61,1,10:25:59,6,1,2,1,NA,4,4,4,2,3,1,4,4,1,NA,2,8,1,NA,NA,3,1,NA,1,NA,NA,NA,NA,NA,NA,NA,NA,NA,NA,3,2,2,4,3,3,3,2,3,3,3,3,3,4,4,5,3,3,3,3,5,3,3,4,5,3,4,3,4,2,4,3,2,3,2,4,4,4,4,4,3,2,2,2,3,3,4,2,3,1,3,8,3,5,2,5,2,5,2,2,2,3,2,4,5,3,NA,8,NA,3,3,2,NA,NA,3,NA,NA,NA,2,7,6,NA,NA,4,3,5,4,4,4,4,5,5,5,3,4,3,2,2,3,3,3,2,3,2,2,2,2,4,3,3,3,2,2,4,2,1,5,6,3,3,3,4,3,3,2,4,1,2,1,2,2,5,4,3,1,4,4,4,4,4,3,4,3,3,4,3,1,2,2,4,4,4,2,4,1,2,2,4,4,1,2,4,3,4,4,2,2,4,5,3,3,4,3,5,4,4,3,1,4
Serbia,1996,2,1,1,7,1.67,59,3,1,3,0,1,17,1,2,37.3,37.3,37.3,44.81860352,20.46809387,61,1,11:38:50,6,1,2,1,NA,4,2,5,NA,2,1,3,3,1,NA,2,4,1,NA,NA,1,1,NA,1,NA,NA,NA,NA,NA,NA,NA,NA,NA,NA,2,1,1,5,4,3,1,1,2,2,2,1,2,4,3,5,4,4,5,4,5,4,5,3,5,3,4,2,4,4,2,2,2,5,4,4,3,2,2,2,2,1,3,2,1,2,2,2,2,1,2,4,5,3,2,1,2,NA,1,2,5,2,1,7,1,8,4,5,NA,8,2,2,NA,1,NA,4,1,NA,2,6,5,NA,5,4,5,5,4,4,5,4,4,2,3,5,4,3,6,4,4,4,4,3,3,5,4,5,1,2,2,2,1,1,2,3,1,4,6,4,1,2,2,4,4,5,5,2,1,3,5,3,2,5,5,3,1,2,5,5,3,4,2,2,2,1,2,3,1,3,1,5,5,2,5,3,2,1,1,4,3,1,2,5,4,2,4,2,2,3,4,4,3,2,2,2,2,1,1,5,1
Tsinghua,1996,1,1,2,7,1.68,50,3,1,0,0,2,0,1,2,39.4,37.05,38.225,30.58009338,114.273407,74,16,11:10:50,7,3,2,1,0,4,2,5,0,4,1,5,1,1,1,2,8,1,2,2,1,2,1,1,ÐÄÀí×ÉÑ¯Ð¡×é,Ñ§ÊõÌÖÂÛÐ¡×é,NA,NA,NA,6,NA,NA,NA,NA,3,2,4,4,2,4,2,4,3,4,3,4,3,3,2,5,2,2,2,4,2,2,2,4,4,2,2,3,2,2,2,2,2,3,2,2,2,2,2,2,2,2,2,2,2,2,2,5,2,3,5,6,3,3,4,5,2,2,3,5,4,3,6,4,2,4,1,2,6,2,2,2,1,1,3,2,2,2,2,1,2,1,2,4,3,4,4,3,3,4,3,3,6,4,4,6,7,5,5,1,1,2,1,2,3,3,2,4,1,2,1,2,1,3,1,4,6,6,5,5,1,5,4,4,4,5,1,2,4,5,2,5,1,2,4,4,2,4,2,2,3,5,4,4,5,5,4,4,3,4,4,3,1,3,1,1,1,4,3,3,2,4,3,5,4,3,3,4,4,4,3,5,2,4,5,5,4,3,2
Oxford,1997,2,1,2,7,1.57,43.18181818,3,2,0,0,2,NA,1,2,35,35.6,35.3,51.75,-1.25,74,2.777777778,08:51:02,5,1,2,1,NA,4,4,5,NA,3,2,4,3,2,8,2,8,1,NA,NA,8,1,NA,1,NA,NA,NA,NA,NA,NA,NA,NA,NA,NA,3,2,4,4,4,4,2,4,2,3,4,2,4,2,3,3,3,2,3,3,3,2,3,3,4,2,3,2,4,4,4,4,3,4,4,4,2,2,3,4,2,2,2,3,2,2,2,4,4,4,3,4,3,4,4,4,4,3,4,4,3,5,4,6,3,5,4,5,4,4,4,4,4,4,4,4,4,4,4,4,5,4,4,4,3,4,4,3,3,3,3,4,5,5,5,4,4,3,3,2,4,1,3,3,2,2,3,4,2,2,2,2,4,4,4,4,5,4,3,4,2,1,2,4,4,4,2,2,2,2,2,5,4,1,4,2,2,3,4,4,2,2,4,4,3,2,3,3,3,2,3,4,3,4,3,2,5,4,4,4,2,3,2,4,4,2,2,4,4,2,2,4,3,4,3,3,2,2,4
VCU,1997,2,1,2,3,1.651,97.72727273,3,2,0,0,1,1,1,2,35.27777778,35.38888889,35.33333333,37.55380249,-77.46029663,74,16.66666667,17:52:27,5,1,2,1,NA,4,4,5,NA,2,2,3,3,1,NA,2,4,1,NA,NA,1,1,NA,1,NA,NA,NA,NA,NA,NA,NA,NA,NA,NA,2,3,2,1,2,2,1,2,1,1,4,3,2,3,3,5,2,3,2,4,3,2,3,4,4,2,4,2,4,4,4,4,4,4,4,4,5,4,5,5,4,3,4,4,4,3,4,6,6,6,6,6,7,6,6,2,3,5,6,6,6,6,6,6,6,6,6,6,6,6,6,6,6,6,6,5,6,6,6,6,6,2,6,4,4,4,4,4,3,3,4,4,1,2,2,2,2,2,2,2,4,4,3,4,4,4,4,2,4,2,3,3,2,4,3,3,3,2,2,2,2,2,2,2,2,5,4,4,2,4,2,4,2,2,4,4,4,2,2,2,2,2,2,4,4,4,4,4,2,3,4,4,2,4,2,2,2,2,2,2,2,2,4,2,2,2,2,4,2,2,2,2,2,2,2,4,2,2,2
METU,1997,1,1,2,7,1.95,65,3,2,28,0,2,NA,1,2,35.1,35.7,35.4,39.91169739,32.84030151,64,6,10:56:36,3,2,2,1,NA,4,4,5,NA,2,2,4,4,1,NA,2,8,1,NA,NA,1,1,NA,2,e-spor toplulu?u,NA,NA,NA,NA,5,NA,NA,NA,NA,5,4,1,1,1,3,1,1,1,4,1,1,1,5,4,3,4,4,5,4,5,4,4,3,5,4,5,2,2,2,4,2,2,3,3,2,2,2,2,2,2,2,2,2,2,2,2,3,2,2,5,6,4,2,2,2,5,2,2,1,2,2,5,6,1,2,2,2,2,2,2,2,2,2,2,2,2,2,2,2,2,2,2,5,5,5,5,5,3,5,4,4,6,5,5,5,6,6,6,2,4,4,4,4,2,4,2,2,5,2,3,4,4,3,2,4,6,4,5,2,5,5,4,2,5,4,1,1,3,3,2,5,5,2,4,5,4,4,2,5,2,4,5,5,3,2,2,4,3,5,4,4,1,1,1,1,2,3,1,1,5,4,4,4,4,4,3,4,4,4,4,4,2,4,2,4,2,1,1
METU,1997,2,1,1,7,1.58,57,1,2,NA,NA,2,NA,1,1,35.1,36.3,35.7,39.91169739,32.84030151,70,3,09:46:03,3,2,1,1,NA,4,4,4,1,7,3,4,2,1,NA,2,8,1,NA,NA,6,1,NA,2,Japon K¨¹lt¨¹r Toplulu?u,NA,NA,NA,NA,4,NA,NA,NA,NA,2,3,2,4,3,2,1,1,1,1,4,2,2,4,5,5,3,3,3,3,4,4,2,4,4,4,3,2,2,2,2,3,2,4,2,2,4,4,4,4,2,2,1,1,2,2,4,7,6,5,3,7,7,5,5,7,2,7,2,5,6,4,1,6,1,2,1,1,1,1,2,3,1,2,1,1,1,1,2,1,1,1,2,4,4,4,4,2,3,4,4,4,6,7,7,6,6,6,7,2,4,2,2,2,4,4,2,2,2,2,2,2,2,2,1,5,8,7,6,6,7,8,2,2,4,4,2,4,2,4,4,5,5,1,3,5,5,3,4,3,5,5,4,5,5,5,5,5,4,4,5,4,1,3,1,2,3,2,2,1,4,2,2,4,4,5,2,4,2,5,5,5,2,4,5,5,4,2,5
Serbia,1997,2,1,2,6,1.77,64,2,2,3,0,2,NA,1,2,35.9,35.5,35.7,44.81860352,20.46809387,61,1,10:39:15,6,1,2,1,NA,4,4,5,NA,4,4,5,4,1,NA,2,8,3,4,2,2,2,8,2,BIMUN,Casovi engleskog,NA,NA,NA,7,4,NA,NA,NA,4,2,2,2,2,4,1,1,2,2,3,2,2,5,5,5,3,2,2,3,4,3,3,5,5,2,4,4,4,3,4,3,3,3,3,4,4,4,4,4,4,2,3,4,3,3,4,5,8,8,7,7,7,8,7,6,5,7,5,7,8,7,8,8,5,8,3,8,3,8,8,5,1,3,6,NA,6,3,8,5,3,3,NA,3,2,4,3,3,3,3,4,4,6,5,5,4,7,7,6,4,4,4,3,4,4,4,4,3,4,4,1,2,1,2,1,5,4,4,1,4,4,4,2,4,3,4,3,4,3,3,3,5,3,3,2,4,4,4,4,3,4,4,2,3,4,2,2,4,2,3,5,5,3,4,2,2,4,3,3,4,3,2,3,4,4,3,2,4,4,3,3,4,3,5,4,3,3,2,4
UCSB,1997,1,1,1,6,1.78,75,4,1,2,0,2,NA,1,2,36,35.44444444,35.72222222,34.4329071,-119.8370972,80,8.333333333,NA,5,1,2,1,NA,4,2,5,NA,3,1,7,7,1,NA,2,5,1,NA,NA,1,1,NA,1,NA,NA,NA,NA,NA,NA,NA,NA,NA,NA,4,2,2,3,3,4,2,3,2,3,4,2,3,3,3,2,3,5,3,4,3,3,3,2,2,3,3,2,4,1,4,3,2,4,2,4,2,2,3,2,1,2,2,2,2,2,2,5,5,5,3,6,6,6,4,3,5,2,2,5,4,6,4,5,5,5,4,6,3,6,6,6,2,2,2,3,2,2,4,3,3,2,2,5,5,4,5,5,3,2,4,4,4,2,3,2,2,1,3,3,4,1,3,4,4,4,4,2,3,2,1,1,1,4,3,2,2,2,1,1,1,1,3,4,5,4,1,1,4,3,2,5,3,2,4,5,4,4,2,5,2,4,3,4,4,3,2,4,4,2,3,2,4,4,2,3,3,4,4,2,3,4,4,3,4,2,3,4,4,3,2,4,3,3,4,2,4,2,3
Oxford,1997,1,1,1,7,1.73,65,4,2,4,0,2,NA,1,2,35,36.5,35.75,51.75,-1.25,71,1.666666667,07:59:40,5,1,2,1,NA,2,2,5,NA,1,NA,4,3,2,8,2,8,1,NA,NA,3,1,NA,1,NA,NA,NA,NA,NA,NA,NA,NA,NA,NA,2,2,4,4,4,4,1,4,2,3,3,3,4,2,2,3,2,2,2,2,3,2,3,5,5,3,3,4,4,1,4,2,2,3,2,2,2,2,2,2,1,1,1,4,2,4,2,4,1,2,4,2,5,1,7,2,1,6,2,2,2,5,1,7,1,3,2,6,7,5,1,6,4,4,2,3,1,2,5,7,6,5,3,5,2,5,4,2,3,4,5,4,6,3,2,3,7,7,7,3,4,1,4,4,2,3,4,3,4,2,1,1,4,5,2,3,3,2,2,2,1,2,1,2,2,5,4,5,2,2,3,3,1,1,1,2,4,1,5,3,2,3,4,4,3,2,2,4,1,3,4,2,3,4,2,2,2,3,4,2,1,4,3,1,4,1,1,3,3,1,1,4,3,4,1,4,4,2,1
UCSB,1997,2,1,2,7,1.66,65,2,1,4,1,2,NA,1,2,36,35.5,35.75,34.4329071,-119.8370972,56,6.666666667,NA,5,1,2,1,NA,4,4,5,NA,8,3,6,6,1,NA,2,8,1,NA,NA,3,1,NA,1,NA,NA,NA,NA,NA,NA,NA,NA,NA,NA,4,3,2,2,2,3,2,2,4,4,5,3,2,3,3,4,2,3,4,2,3,2,3,4,3,3,3,2,4,3,3,3,4,2,3,3,3,4,3,2,3,2,4,2,3,3,3,4,5,4,5,3,4,6,2,5,5,3,3,5,3,2,4,6,4,3,3,5,3,5,5,3,5,4,4,6,5,5,5,6,2,3,4,4,2,3,3,4,2,2,3,3,5,7,5,4,4,5,4,4,3,3,4,4,4,3,3,2,3,2,2,3,3,3,2,4,6,4,4,4,5,4,3,4,4,4,1,4,4,2,4,5,2,3,3,4,4,4,2,4,3,4,3,4,3,3,3,3,4,2,3,3,2,4,3,2,3,4,3,2,3,4,3,3,4,3,2,4,2,2,3,3,4,2,4,3,3,4,4
Oxford,1997,2,1,1,7,1.7526,61.81818182,4,1,15,0,2,NA,1,2,35,36.7,35.85,51.75,-1.25,88,-2.222222222,09:10:18,5,1,1,1,NA,4,4,4,4,4,4,6,6,2,1,2,8,1,NA,NA,4,1,NA,1,NA,NA,NA,NA,NA,NA,NA,NA,NA,NA,4,3,3,3,2,4,2,3,2,4,3,4,2,3,4,3,2,1,1,2,4,2,2,4,4,1,3,2,3,2,4,2,2,4,1,4,4,3,4,4,4,2,2,2,2,1,3,1,1,1,1,1,3,1,1,1,1,3,1,2,3,1,2,3,1,1,1,3,1,1,1,2,1,1,1,1,1,1,1,1,3,1,1,4,3,4,3,2,2,2,3,3,6,5,6,3,6,6,6,3,2,2,2,2,2,2,2,1,2,4,3,4,2,3,2,3,4,5,4,4,2,6,1,2,2,5,5,5,4,2,5,4,3,1,1,2,3,1,4,3,4,4,4,2,4,5,5,5,2,5,4,2,2,4,3,3,2,5,4,2,2,4,3,3,2,4,2,3,5,5,5,5,2,4,2,5,4,2,4
Oxford,1997,2,3,2,6,1.651,69,2,2,2,0,1,1,1,2,35.3,36.6,35.95,51.75,-1.25,71,1.666666667,09:02:29,5,1,2,1,NA,4,4,5,NA,4,2,4,4,1,NA,2,6,1,NA,NA,1,1,NA,1,NA,NA,NA,NA,NA,NA,NA,NA,NA,NA,3,3,2,4,1,2,1,2,2,3,2,4,5,3,2,2,3,2,1,2,2,2,2,2,4,4,2,2,4,2,4,4,1,2,4,4,5,5,5,5,4,1,2,2,3,2,5,5,5,5,6,4,4,2,5,5,5,4,4,3,2,6,6,6,5,5,1,7,5,7,2,4,5,3,3,2,5,1,4,2,7,3,5,5,5,5,5,5,5,4,5,5,7,7,7,7,5,5,6,4,2,2,1,4,2,5,5,3,2,3,1,2,2,3,1,4,4,3,1,3,5,1,1,3,2,4,4,5,2,2,4,4,3,1,1,4,5,1,5,5,3,4,5,3,4,4,3,4,5,3,4,5,4,1,4,1,3,3,4,2,1,4,5,4,2,2,1,1,5,4,5,5,4,3,4,5,4,1,5
VCU,1997,1,1,2,4,1.905,68.18181818,4,2,0,0,2,NA,1,2,35.77777778,36.22222222,36,36.89289856,-76.14679718,99,11.11111111,09:41:58,5,1,2,1,NA,4,2,5,NA,7,2,7,1,1,NA,2,3,1,NA,NA,1,1,NA,1,NA,NA,NA,NA,NA,NA,NA,NA,NA,NA,4,4,2,4,3,3,3,3,3,4,3,3,2,3,3,4,4,3,3,4,2,3,2,4,2,4,2,4,3,4,3,2,2,3,4,3,3,3,2,2,2,3,4,4,2,4,3,5,4,3,3,4,4,4,2,4,4,4,2,2,3,3,5,3,3,5,4,4,5,5,3,4,4,5,5,5,6,5,2,6,5,4,5,4,3,3,3,2,4,4,5,4,3,2,2,2,2,2,2,4,4,2,3,4,2,2,3,2,2,4,2,3,2,2,3,3,4,3,3,3,4,2,3,2,2,4,4,3,4,4,3,3,3,4,4,4,4,2,2,2,2,3,3,3,3,4,4,4,4,3,3,3,4,4,4,4,4,2,3,2,2,4,4,4,4,3,3,2,2,3,3,4,2,4,2,4,3,3,3
Oxford,1997,2,1,2,7,1.5748,50.8,3,2,2,0,2,NA,1,2,35,37,36,51.75,-1.25,88,-2.222222222,08:54:59,5,1,2,1,NA,4,4,5,NA,3,2,5,5,2,1,2,8,3,1,5,2,1,NA,1,NA,NA,NA,NA,NA,NA,NA,NA,NA,NA,3,2,2,1,3,4,1,1,2,2,3,2,3,2,2,5,4,2,2,3,4,3,5,2,5,3,4,3,5,3,4,2,2,4,3,5,5,4,4,4,4,2,3,2,3,2,4,7,7,6,5,5,6,7,6,7,4,7,2,4,7,7,7,7,2,2,2,3,1,2,5,3,2,4,2,2,1,3,2,5,1,1,5,4,4,2,5,5,4,5,3,3,4,5,6,3,7,5,5,4,3,2,3,4,4,4,4,2,2,3,4,4,2,2,1,5,6,7,4,4,2,2,2,4,3,4,4,4,4,4,3,2,2,2,1,3,3,2,5,5,2,4,3,4,4,5,5,4,2,4,3,3,3,2,4,2,3,3,5,5,2,3,3,3,3,3,2,3,4,3,4,4,3,3,4,3,2,2,4
UCSB,1997,1,1,2,7,1.778,68.18181818,4,1,4,0,2,NA,1,2,35.88888889,36.16666667,36.02777778,34.4329071,-119.8370972,84,10.55555556,NA,5,1,2,1,NA,4,2,5,NA,8,1,3,3,1,NA,2,2,1,NA,NA,1,1,NA,2,Rock Climbing Club,NA,NA,NA,NA,2,NA,NA,NA,NA,4,1,1,4,1,1,1,2,4,4,4,1,5,3,2,5,2,3,2,3,3,3,2,2,5,1,2,1,1,1,4,2,2,1,3,4,1,1,1,1,1,1,1,1,1,5,1,2,2,2,2,4,2,2,2,2,7,2,2,1,2,2,2,7,2,7,7,4,2,3,5,2,5,3,6,2,7,1,6,3,6,2,6,5,5,5,5,5,1,1,1,1,6,6,5,5,6,5,6,2,1,1,2,1,1,1,2,1,1,1,1,1,5,5,1,4,4,1,1,1,5,2,4,5,5,4,2,2,2,5,3,4,3,5,4,5,3,4,3,2,2,2,5,5,4,1,1,1,4,3,1,1,2,4,1,1,4,5,5,5,1,1,5,5,1,1,3,4,5,1,1,1,5,5,1,4,3,3,4
Serbia,1997,2,1,2,4,1.8,65,4,2,0,0,2,NA,1,2,35.7,36.4,36.05,44.81860352,20.46809387,65,8,09:23:30,6,1,2,1,NA,4,4,5,NA,3,3,6,6,1,NA,2,8,1,NA,NA,2,1,NA,1,NA,NA,NA,NA,NA,NA,NA,NA,NA,NA,4,2,4,4,4,3,3,4,3,3,3,3,4,3,4,3,4,3,2,2,3,2,2,4,5,2,3,4,3,4,4,4,2,4,2,4,4,4,4,4,3,4,4,4,2,3,4,5,5,3,5,5,8,5,5,NA,2,5,2,2,2,3,2,5,8,3,3,8,NA,3,5,2,3,NA,NA,NA,3,NA,2,6,6,NA,NA,4,4,3,5,4,4,4,4,5,5,6,3,3,4,4,4,3,3,1,3,3,1,2,2,4,2,2,2,2,2,3,2,4,4,6,1,2,3,3,2,4,3,4,2,4,4,2,4,4,3,4,4,2,3,2,4,3,3,4,4,4,4,4,2,2,1,3,4,4,2,2,2,4,5,4,3,2,2,4,3,4,4,2,2,4,3,4,3,4,2,4,4,4,3,3,2
UCSB,1997,1,1,1,6,1.7018,63.63636364,3,1,NA,0,2,NA,1,2,35.88888889,36.22222222,36.05555556,34.50210571,-120.1287003,84,7.222222222,NA,5,1,2,1,NA,4,4,5,NA,8,5,5,3,2,1,2,5,1,NA,NA,1,1,NA,1,NA,NA,NA,NA,NA,NA,NA,NA,NA,NA,2,4,4,4,4,3,4,3,4,3,2,4,4,3,3,3,3,3,3,3,3,3,3,3,3,3,3,3,3,3,3,3,3,3,3,3,3,3,3,3,3,2,3,3,3,3,3,3,3,3,2,3,2,4,2,1,2,6,3,5,3,4,1,3,2,3,6,2,5,2,2,3,6,1,3,5,6,5,1,6,5,5,5,4,4,4,4,4,4,4,4,4,6,3,3,4,3,4,3,4,4,3,2,4,4,3,3,4,3,3,2,4,3,3,3,2,2,3,2,2,2,2,3,4,4,4,2,3,3,4,4,4,2,3,4,4,4,4,1,2,3,3,4,5,3,3,2,4,4,3,5,4,2,3,3,2,4,3,3,2,2,4,4,3,3,3,3,3,3,4,3,3,3,3,4,4,4,3,2
Bamberg,1997,2,1,2,7,1.61,51,4,2,1,0,2,NA,1,2,36.1,36.2,36.15,52.08329773,4.333297729,51,-7,10:29:08,1,1,2,1,NA,4,4,5,NA,8,5,5,5,2,1,2,6,1,NA,NA,2,1,NA,1,NA,NA,NA,NA,NA,NA,NA,NA,NA,NA,2,2,3,3,2,3,2,3,2,3,3,3,3,2,3,3,3,3,2,3,3,2,3,3,2,2,2,4,4,2,4,2,2,3,2,4,2,3,2,2,2,1,2,3,2,2,2,4,3,3,5,3,2,1,3,5,2,5,2,3,2,5,2,4,2,4,2,4,3,3,2,2,3,4,4,4,4,5,2,6,4,4,3,4,3,3,4,2,3,3,4,2,5,5,5,4,4,4,4,4,3,1,4,2,2,4,3,4,2,4,3,2,2,4,2,3,4,3,3,2,2,3,4,3,3,4,2,2,2,2,2,4,2,2,2,3,3,2,3,2,2,4,4,4,4,3,2,3,3,2,2,2,2,2,2,2,4,4,3,3,2,3,4,3,2,2,2,3,4,4,3,3,4,5,2,2,3,2,2
Bamberg,1997,2,1,2,7,1.7,76,4,1,4,0,2,NA,1,2,35.9,36.4,36.15,49.43609619,11.09249878,68,1,09:37:05,1,1,2,1,NA,4,4,5,NA,8,1,8,6,2,1,2,8,1,NA,NA,2,1,NA,2,Hochschulsport,NA,NA,NA,NA,10,NA,NA,NA,NA,1,1,3,3,1,2,1,4,2,2,3,1,1,4,5,5,3,3,4,3,4,3,3,5,5,4,5,5,4,4,5,5,4,4,4,5,5,4,4,4,4,3,4,4,2,4,4,7,6,7,7,6,7,7,7,7,6,7,6,5,6,7,5,6,2,4,1,7,2,5,1,2,2,1,2,3,1,2,1,6,2,1,6,4,4,3,4,5,4,3,4,5,7,7,7,7,7,6,7,5,5,4,4,5,5,5,5,3,5,5,2,1,2,2,1,5,7,7,6,6,6,6,4,5,3,5,1,1,3,5,1,5,5,3,5,4,4,3,1,3,3,5,4,5,3,5,4,4,3,4,4,4,2,3,2,2,4,4,4,2,1,5,2,4,3,1,4,3,5,2,1,4,1,3,4,4,4,1,4
Kassel,1997,2,1,2,6,1.63,54,3,2,0,0,2,NA,1,2,36.2,36.2,36.2,49.98730469,8.29649353,77,5,10:49:06,1,1,2,1,NA,4,4,5,NA,8,3,8,8,1,NA,2,8,1,NA,NA,1,2,2,1,NA,NA,NA,NA,NA,NA,NA,NA,NA,NA,4,4,5,4,3,3,4,4,4,4,4,5,4,2,3,3,3,3,3,3,3,3,2,3,3,2,3,3,2,2,3,2,2,2,2,2,2,2,2,2,2,2,2,2,2,2,2,2,2,2,2,2,3,2,2,4,2,2,2,2,2,2,2,2,2,2,2,6,2,6,2,2,2,6,2,2,3,4,2,6,6,2,2,4,4,4,4,4,4,3,4,4,5,5,5,5,4,4,4,2,2,1,2,2,2,2,2,1,2,2,2,1,2,2,2,5,7,5,6,3,4,4,3,3,3,4,4,2,3,3,3,3,2,3,2,3,3,2,2,2,2,5,2,2,5,5,4,4,3,3,4,4,2,2,2,2,2,3,3,2,2,2,2,4,3,2,2,5,4,4,5,4,1,3,5,2,3,3,3
METU,1997,2,1,2,7,1.6,52,4,1,15,0,2,NA,1,2,35.8,36.6,36.2,NA,NA,68,5,11:14:31,3,2,2,1,NA,4,4,5,NA,8,3,3,3,1,NA,2,8,1,NA,NA,1,1,NA,1,NA,NA,NA,NA,NA,NA,NA,NA,NA,NA,5,1,1,5,4,4,1,3,1,1,3,1,1,3,4,4,1,2,4,3,4,3,3,3,5,4,4,5,2,2,2,5,2,5,4,5,5,4,5,5,1,2,1,1,4,1,5,7,2,4,4,7,7,5,4,2,4,7,4,4,1,4,6,3,4,5,4,4,4,6,4,4,4,7,3,1,7,4,5,4,4,1,4,5,5,5,5,5,5,5,5,5,7,7,7,7,7,7,7,1,5,1,3,5,1,5,4,1,4,2,1,5,1,5,1,5,7,7,2,5,7,1,4,1,5,5,1,3,5,5,2,5,5,5,5,5,3,5,3,5,3,4,1,2,5,3,3,4,5,4,4,4,2,1,1,1,5,3,1,4,5,2,1,5,5,2,5,5,1,3,1,2,1,5,5,3,1,1,5
UCSB,1997,2,1,2,7,1.6764,61.36363636,3,1,0,0,2,NA,1,2,36.33333333,36.11111111,36.22222222,32.78309631,-96.80670166,71,16.11111111,NA,5,1,2,1,NA,4,2,5,NA,2,2,1,2,1,NA,2,1,1,NA,NA,1,1,NA,1,NA,NA,NA,NA,NA,NA,NA,NA,NA,NA,4,3,2,4,3,4,2,2,2,1,3,4,3,4,4,5,2,3,3,3,4,2,2,4,4,3,4,3,5,4,3,3,3,4,5,4,3,3,2,3,2,2,2,3,3,2,3,4,4,4,4,4,4,4,4,4,4,4,4,4,4,4,4,7,4,4,4,6,4,4,6,1,4,7,4,4,4,4,4,4,4,4,4,4,4,4,4,4,5,4,5,5,4,4,4,4,5,5,5,3,4,3,4,4,4,4,4,4,3,2,2,4,2,2,3,5,6,5,1,4,6,2,3,3,4,3,2,2,2,2,3,5,4,2,3,4,4,3,3,4,2,2,3,3,4,2,3,3,4,3,3,4,3,2,3,3,4,3,3,2,2,4,2,3,4,3,3,4,4,4,3,3,3,3,3,3,3,2,3
Bamberg,1997,2,1,2,7,1.7,65,4,2,1,0,2,NA,1,2,36.4,36.1,36.25,48.77600098,11.44590759,65,2,11:44:09,1,1,2,1,NA,4,4,5,NA,8,2,6,5,1,NA,2,8,1,NA,NA,2,1,NA,2,Reitverein,NA,NA,NA,NA,5,NA,NA,NA,NA,2,3,4,3,3,3,2,3,4,4,3,4,4,2,3,4,4,2,4,3,3,4,4,3,4,2,2,2,2,1,5,4,2,2,2,4,4,4,2,3,2,1,2,2,1,2,2,4,4,4,4,4,5,2,4,4,4,4,4,4,2,4,4,2,4,2,4,4,3,5,6,2,4,3,3,4,4,4,2,4,5,2,4,4,4,4,4,5,4,4,5,5,5,4,5,4,4,4,4,2,2,1,3,2,3,4,2,2,2,2,2,1,2,3,1,4,6,6,3,3,2,2,3,4,2,4,1,2,2,2,2,5,4,1,2,4,4,1,2,2,2,4,3,3,4,5,4,3,3,4,3,3,2,2,3,2,3,4,4,1,2,4,3,3,5,3,1,4,4,3,3,2,2,1,4,3,3,2,4
UCSB,1997,1,3,2,7,1.7272,56.45454545,3,1,52,0,1,0,1,2,36.22222222,36.27777778,36.25,34.4329071,-119.8370972,57,6.111111111,NA,5,1,2,1,NA,4,2,5,NA,3,1,4,3,1,NA,2,8,1,NA,NA,5,1,NA,1,NA,NA,NA,NA,NA,NA,NA,NA,NA,NA,3,3,3,2,1,3,2,2,1,1,3,4,4,3,4,5,2,3,2,3,2,2,3,5,5,3,3,4,2,4,4,4,3,5,3,4,4,4,4,4,3,2,3,3,2,2,4,2,2,4,4,2,2,1,2,4,2,4,4,4,2,1,4,4,1,4,4,4,4,4,2,4,4,4,4,6,4,4,2,4,4,4,6,3,3,3,4,4,2,2,3,2,6,1,1,1,1,1,1,4,4,2,4,2,3,3,3,3,3,2,3,3,3,4,2,3,3,3,2,2,3,2,2,3,4,4,1,4,3,3,4,4,2,2,4,4,4,4,4,4,3,4,3,3,4,4,4,4,4,4,3,3,3,2,3,2,4,4,3,2,2,3,3,3,3,2,2,4,4,4,3,3,3,4,3,2,3,2,2
METU,1997,2,1,1,7,1.65,54,3,2,0,0,2,NA,1,2,36.1,36.5,36.3,39.91169739,32.84030151,70,3,09:45:43,3,2,2,1,NA,4,4,4,4,8,5,5,5,1,NA,2,8,1,NA,NA,1,1,NA,2,THBT,NA,NA,NA,NA,20,NA,NA,NA,NA,4,4,4,4,4,3,2,3,3,2,4,3,3,3,3,3,2,2,2,2,3,2,2,4,4,3,3,4,4,4,4,4,4,4,4,4,4,4,4,4,4,4,4,4,4,2,4,7,3,5,6,6,6,2,6,6,2,7,1,4,2,2,6,2,2,1,1,2,2,2,2,2,3,2,2,2,2,2,2,3,2,1,3,5,4,4,4,5,5,5,5,5,4,6,6,6,5,4,4,2,4,2,3,4,2,4,2,2,3,3,2,2,2,2,2,5,7,6,2,4,4,4,2,2,5,5,3,2,4,4,5,4,5,2,4,5,4,2,2,3,4,4,4,4,4,4,4,5,5,3,5,5,1,1,3,2,4,3,4,2,2,4,3,3,3,5,1,4,4,4,3,4,1,5,4,4,3,1,4
UCSB,1997,2,3,1,6,1.6256,75,2,1,3,0,1,5,1,2,36.22222222,36.44444444,36.33333333,34.4329071,-119.8370972,84,7.222222222,NA,5,1,2,1,NA,4,4,5,NA,7,4,4,4,1,NA,2,4,3,8,4,1,1,NA,2,social club,IORG,na,na,na,4,2,0,0,0,2,1,1,1,1,1,2,1,1,3,2,2,4,5,5,5,3,4,2,3,5,3,4,5,2,3,5,5,5,2,5,5,4,4,4,5,3,5,3,5,3,5,5,4,3,5,3,5,6,5,5,3,5,7,6,5,2,7,4,5,6,7,7,6,6,5,7,4,4,4,6,6,2,4,3,2,3,3,6,5,4,3,3,4,3,4,2,3,2,2,3,2,3,6,5,5,2,3,3,2,3,2,4,3,2,2,3,1,2,4,2,3,1,2,4,1,1,1,1,1,1,1,2,5,4,3,1,2,3,5,3,5,5,3,4,5,3,3,2,4,4,4,4,5,2,5,3,3,2,1,1,1,2,5,3,2,1,3,3,4,4,2,3,4,2,5,4,3,4,5,3,4,3,2,3,4,2,2,4
Tsinghua,1997,2,1,2,7,1.62,56,2,2,0,0,2,0,1,2,36.8,35.9,36.35,30.58009338,114.273407,88,14,11:40:49,7,3,2,1,0,4,4,5,0,8,1,1,1,1,1,2,2,1,1,1,1,2,1,2,na,na,na,na,na,NA,NA,NA,NA,NA,1,1,1,3,3,5,1,1,1,1,3,2,1,4,2,4,4,4,4,2,4,3,4,2,3,4,2,2,2,2,3,2,2,2,4,4,4,4,4,4,4,3,3,3,3,2,3,6,1,6,6,6,6,1,6,2,1,1,1,6,1,7,1,7,1,6,2,1,2,6,6,6,1,1,2,2,7,1,6,1,1,1,2,5,5,5,5,5,5,5,5,5,4,2,2,5,5,5,5,3,4,3,3,4,4,4,3,2,4,3,4,4,2,4,3,5,7,4,7,6,6,6,2,2,3,3,3,3,3,3,3,2,2,2,2,2,2,2,2,2,1,1,4,4,2,1,1,2,5,2,2,5,2,2,2,2,2,2,2,2,2,4,4,4,4,2,2,4,4,1,1,1,4,2,2,4,4,2,4
Tsinghua,1997,1,1,1,7,1.65,50,2,2,0,0,1,1,1,2,36.2,36.5,36.35,30.58009338,114.273407,87,17,11:13:21,7,3,2,1,0,4,4,5,0,8,3,5,3,1,1,1,5,3,1,1,5,1,3,2,·ÖÍÅÎ¯,NA,NA,NA,NA,7,NA,NA,NA,NA,2,3,3,2,2,2,2,4,4,4,2,4,4,2,2,2,4,4,4,4,2,4,4,2,2,4,2,2,4,4,2,2,4,3,3,4,4,4,2,2,3,4,2,4,3,3,2,5,3,5,5,3,5,4,3,3,4,4,4,5,3,3,4,5,3,2,5,6,2,5,2,5,3,2,4,4,4,3,3,7,4,4,5,2,2,2,2,2,2,2,2,2,5,3,3,3,3,3,5,3,3,3,3,3,3,3,3,3,3,3,3,3,3,3,3,2,2,4,2,3,3,5,3,3,4,4,2,3,3,4,4,1,2,3,2,2,4,4,3,3,3,2,3,4,4,3,3,2,2,2,2,3,5,4,2,3,2,3,2,3,3,4,2,3,2,1,3,1,2,4,4,2,2,4,3,4,1,3,4
UCSB,1997,2,1,2,6,1.6256,63.63636364,4,1,0,0,2,NA,1,2,36.33333333,36.38888889,36.36111111,34.0184021,-119.7252045,65,9.444444444,NA,5,1,2,1,NA,4,4,5,NA,8,2,8,8,1,NA,2,1,3,1,4,1,1,NA,1,NA,NA,NA,NA,NA,NA,NA,NA,NA,NA,3,2,2,2,2,3,1,3,2,2,4,2,3,4,4,4,3,2,2,4,4,3,3,4,5,3,2,3,4,3,4,4,4,4,4,4,4,5,4,4,4,2,2,2,4,2,4,5,3,3,3,3,3,3,5,2,2,3,3,3,3,3,3,6,2,3,3,5,3,2,3,3,2,2,3,2,2,2,3,3,5,2,3,5,5,5,5,5,5,4,5,5,6,6,6,6,7,6,6,2,4,2,2,1,2,2,4,2,2,3,2,2,2,2,2,4,3,4,4,4,4,4,2,4,2,4,2,3,4,2,4,4,1,4,2,4,4,2,2,4,2,4,4,2,4,4,3,4,5,4,4,4,2,2,2,2,4,4,4,4,2,2,5,4,2,4,2,4,5,5,5,5,2,4,4,4,2,2,4
UCSB,1997,2,3,2,7,1.6256,68.18181818,1,1,1,0,2,NA,1,2,36,36.77777778,36.38888889,34.4329071,-119.8370972,47,9.444444444,10:50:00,5,1,2,1,NA,4,2,5,NA,2,2,6,6,1,NA,2,8,3,1,8,8,1,NA,2,an ethnic club,NA,NA,NA,NA,25,NA,NA,NA,NA,2,3,2,2,1,2,1,1,2,3,5,5,2,4,4,5,1,3,4,3,4,3,4,5,5,3,5,4,2,2,4,2,5,1,3,4,4,3,4,4,3,3,3,4,1,4,2,6,5,5,7,7,6,5,5,6,7,6,6,7,4,2,7,6,7,1,1,5,1,3,2,1,1,7,3,2,1,2,2,4,4,1,4,5,5,5,5,5,5,5,5,5,7,7,7,7,7,7,7,5,5,3,5,3,4,5,4,5,5,4,2,2,2,3,3,2,7,7,7,7,7,7,1,4,4,4,1,2,2,4,1,5,3,4,2,3,1,4,5,2,4,5,4,3,4,5,5,5,2,2,2,2,2,4,4,2,5,2,5,2,1,2,4,5,5,4,4,5,5,5,5,5,1,4,4,4,4,2,4
Portugal,1997,2,1,2,7,1.64,54,2,2,7,2,2,NA,1,2,36.4,36.4,36.4,38.71670532,-9.133300781,42,13,11:17:01,8,1,2,1,NA,2,2,5,1,3,8,8,8,1,NA,2,5,1,NA,NA,1,1,NA,1,NA,NA,NA,NA,NA,NA,NA,NA,NA,NA,4,4,2,1,5,5,2,1,5,4,5,5,5,3,2,2,2,2,4,4,4,2,3,3,5,2,3,2,4,2,2,2,2,2,2,2,4,4,4,4,4,2,2,2,2,2,4,2,2,2,7,7,7,2,2,6,2,6,7,2,2,7,2,7,7,2,6,7,1,2,7,2,6,6,6,1,6,1,2,6,6,6,6,5,5,5,5,5,5,5,5,5,7,7,6,6,6,6,6,1,4,1,5,1,1,1,5,3,3,1,3,3,3,1,2,4,5,7,5,7,5,1,5,2,4,4,4,1,1,2,2,2,1,3,1,5,5,4,4,4,4,4,2,4,4,1,1,1,2,1,3,5,2,4,1,3,4,1,2,1,1,4,4,4,4,3,1,5,5,4,1,4,3,2,4,1,3,1,1
METU,1997,2,4,1,7,1.64,47,3,2,5,0,2,NA,1,2,36.2,36.6,36.4,39.91169739,32.84030151,69,6,09:37:52,3,2,2,1,NA,4,4,4,1,5,3,8,8,1,NA,2,8,1,NA,NA,1,2,3,2,lodos grubu,NA,NA,NA,NA,3,NA,NA,NA,NA,2,4,2,4,2,4,2,3,2,3,4,2,4,3,4,4,2,2,3,2,3,2,3,5,4,3,3,2,3,3,4,4,4,4,2,4,5,4,4,5,4,2,4,2,2,4,5,6,6,6,6,7,6,6,2,6,2,6,2,2,2,2,6,2,2,2,2,2,2,2,2,2,2,2,2,2,2,2,2,5,3,1,3,4,3,4,3,4,2,2,3,4,3,6,6,6,7,6,6,4,2,2,2,2,2,3,4,2,4,2,2,3,4,2,2,4,4,6,2,3,2,1,2,2,4,4,2,2,4,2,2,5,5,2,4,4,4,4,4,4,3,4,2,4,4,4,4,4,2,2,4,2,2,4,1,3,3,4,2,2,2,4,4,4,4,4,4,4,4,4,4,4,2,4,5,4,2,2,4
Tsinghua,1997,1,1,1,7,1.77,70,4,2,1.7,0,2,0,1,2,36.3,36.5,36.4,39.92889404,116.3883057,22,8,10:36:16,7,3,2,1,0,4,2,5,0,4,1,6,3,1,1,2,8,1,1,1,3,1,8,1,ºÏ³ª¶Ó,NA,NA,NA,NA,8,NA,NA,NA,NA,3,2,3,4,2,5,2,3,2,3,4,5,3,5,4,4,2,2,2,3,5,4,2,4,5,2,4,5,5,4,4,4,4,4,5,5,5,4,5,5,4,2,3,3,2,1,4,4,1,1,7,2,5,2,5,1,2,1,2,2,2,1,2,6,1,2,1,5,1,1,2,1,1,1,1,1,2,1,2,1,4,2,3,5,3,4,5,4,1,4,3,2,3,2,2,2,2,4,3,1,1,1,2,1,1,3,3,2,3,2,1,1,2,4,5,3,3,3,2,2,3,2,2,2,5,5,1,1,1,1,3,5,4,1,1,5,5,3,4,1,3,4,5,4,5,4,5,4,2,1,4,3,3,3,3,4,4,5,5,5,1,5,2,4,5,2,4,5,5,5,4,4,4,5,5,4,2,1,5
UCSB,1997,2,1,2,7,1.7018,61.36363636,4,1,0,0,2,NA,1,2,36.44444444,36.44444444,36.44444444,34.4329071,-119.8370972,92,13.88888889,NA,5,1,2,1,NA,4,4,5,NA,2,2,5,3,1,NA,2,5,1,NA,NA,4,1,NA,1,NA,NA,NA,NA,NA,NA,NA,NA,NA,NA,4,3,2,4,3,4,4,2,2,4,3,5,4,2,3,3,3,3,3,3,3,2,2,3,4,2,3,4,4,4,4,4,4,4,4,4,4,4,4,4,4,2,4,4,4,4,4,4,4,4,4,4,2,4,4,4,4,4,4,4,2,4,4,4,4,4,4,4,4,4,4,4,4,4,4,4,4,4,4,4,4,4,4,5,5,5,5,5,4,2,4,4,4,4,4,3,5,5,4,1,4,1,4,2,1,2,3,1,1,1,4,4,4,4,4,4,3,3,3,3,3,3,2,4,4,4,3,2,2,2,2,4,4,1,3,4,4,3,1,2,1,2,4,4,3,2,2,3,3,2,2,2,3,2,3,3,4,4,4,2,2,2,3,3,4,2,2,3,4,2,2,3,4,4,2,3,3,2,4
UCSB,1997,2,1,2,7,1.5748,44.09090909,3,1,1,0,2,NA,1,2,36.16666667,36.72222222,36.44444444,34.4329071,-119.8370972,84,7.222222222,NA,5,1,2,1,NA,4,2,5,NA,3,3,4,2,1,NA,2,6,3,1,6,2,1,NA,1,NA,NA,NA,NA,NA,NA,NA,NA,NA,NA,4,2,2,4,3,4,1,1,2,3,5,4,5,4,3,5,2,4,4,4,4,4,3,2,5,3,5,5,5,4,5,4,4,3,1,5,5,4,3,5,2,2,4,3,4,4,3,6,5,7,7,7,7,5,6,3,5,2,3,7,6,6,6,7,5,7,5,6,1,5,2,3,4,2,6,2,6,5,4,4,4,1,3,5,4,5,5,5,5,5,4,5,7,6,5,6,5,5,5,2,5,1,3,1,2,5,2,4,2,2,1,2,3,2,2,2,3,5,4,4,2,4,2,5,5,5,1,4,2,2,4,5,2,2,5,5,5,4,3,3,3,4,5,5,4,5,3,5,5,3,3,4,2,2,3,2,5,5,4,3,3,4,4,4,2,4,3,5,5,4,3,4,5,5,5,5,5,2,4
Serbia,1997,2,1,1,7,1.71,63,5,2,3,2,2,NA,1,2,36.6,36.4,36.5,44.81860352,20.46809387,45,12,09:49:18,6,1,2,1,NA,4,4,5,NA,2,2,4,3,2,1,2,8,1,NA,NA,2,1,NA,1,NA,NA,NA,NA,NA,NA,NA,NA,NA,NA,4,4,4,4,5,1,4,3,4,3,2,4,4,3,3,3,2,2,2,2,3,2,3,3,4,3,2,2,2,2,1,2,1,1,2,4,2,2,4,2,2,1,3,1,1,2,4,1,1,1,1,4,2,1,1,NA,1,1,1,1,2,1,2,3,1,5,NA,5,1,3,3,2,NA,NA,NA,1,NA,NA,1,6,6,NA,NA,5,5,5,5,5,5,5,5,5,3,3,4,3,3,3,3,3,2,1,3,4,2,2,3,2,1,3,3,2,2,2,3,5,4,6,2,7,6,6,2,4,3,2,1,3,3,4,3,5,4,2,2,3,3,4,3,4,4,4,4,2,3,3,1,1,2,3,4,4,3,4,1,2,4,3,3,2,3,3,4,4,3,3,2,4,4,4,4,4,2,4,3,3,3,4,3
Serbia,1997,1,1,1,2,1.9,79,4,2,NA,0,1,15,1,2,36.5,36.5,36.5,44.81860352,20.46809387,56,6,10:37:35,6,1,2,1,NA,4,4,5,NA,2,2,6,6,1,NA,2,8,1,NA,NA,1,1,NA,2,Kosarkaski klub,NA,NA,NA,NA,10,NA,NA,NA,NA,5,2,2,2,3,3,2,4,1,1,4,2,2,2,4,3,4,2,2,3,3,3,2,3,4,4,3,4,4,3,4,4,5,4,3,5,4,4,3,4,3,3,4,4,3,4,4,5,4,4,8,4,4,2,5,NA,2,4,4,4,4,5,2,4,5,4,3,4,6,3,5,4,3,4,3,3,4,3,2,4,3,NA,3,4,3,3,3,3,4,3,3,3,5,5,5,4,6,2,4,4,4,3,4,3,4,4,3,3,3,4,2,4,2,3,2,3,3,3,2,1,2,2,2,4,2,4,2,2,3,4,3,4,3,3,4,3,3,3,4,3,3,4,3,3,4,4,4,3,2,3,4,4,2,2,3,4,4,4,3,4,3,2,3,3,3,3,2,3,4,3,3,5,4,5,2,4,3,5,3
Bamberg,1997,2,1,2,7,1.7,60,4,2,0,0,2,NA,1,2,36.6,36.5,36.55,48.24569702,12.68209839,90,2,11:40:02,1,1,2,1,NA,4,4,5,NA,3,2,4,4,1,NA,2,4,1,NA,NA,1,1,NA,2,Fu?ball,NA,NA,NA,NA,5,NA,NA,NA,NA,2,3,2,5,2,2,2,2,3,3,2,4,3,2,2,2,2,3,2,2,4,2,2,3,4,3,2,4,4,3,4,4,3,4,2,3,4,4,4,4,3,2,2,3,3,4,4,4,4,2,4,4,3,2,3,4,2,4,3,2,2,5,2,4,2,3,3,3,2,3,2,2,3,2,2,2,3,2,3,5,6,2,2,4,3,4,5,3,3,3,4,3,3,3,4,4,4,4,4,4,4,1,4,4,3,3,4,2,3,2,1,4,2,4,2,4,4,2,2,2,2,2,2,3,2,4,3,3,3,2,2,3,2,1,2,3,3,2,2,2,2,4,3,4,3,3,3,4,3,4,3,3,2,2,2,2,3,3,2,3,3,4,3,3,4,2,2,4,4,2,2,2,3,2,3,3,4,2,4
UCSB,1997,2,1,2,4,1.7018,63.63636364,3,1,1,1,1,0,1,1,36.16666667,36.94444444,36.55555556,34.4329071,-119.8370972,76,10,11:58:00,5,1,2,1,NA,4,4,5,NA,3,1,3,3,2,1,2,6,1,NA,NA,3,1,NA,1,NA,NA,NA,NA,NA,NA,NA,NA,NA,NA,4,3,3,1,1,4,1,2,4,1,3,2,5,4,4,4,1,1,4,4,3,4,2,5,5,3,5,2,4,3,4,2,2,2,2,3,5,1,5,2,5,1,1,1,1,1,5,2,3,2,5,4,2,2,3,3,3,6,2,2,1,2,2,5,2,5,4,5,5,5,5,6,3,3,2,1,3,2,5,4,5,2,2,5,5,5,5,5,5,5,5,5,6,7,7,7,7,7,4,4,3,2,5,5,2,4,4,5,4,4,1,4,2,5,1,4,4,2,2,2,2,1,1,2,4,4,1,4,4,5,5,5,4,1,2,4,3,2,4,4,2,2,4,2,4,3,2,4,4,4,2,1,2,3,4,2,5,5,3,4,1,3,4,2,4,3,2,4,4,2,2,4,3,5,3,4,2,1,1
UCSB,1997,2,1,2,7,1.9558,63.63636364,4,1,0,0,2,NA,1,2,36.27777778,36.88888889,36.58333333,34.4329071,-119.8370972,82,12.22222222,11:23:00,5,1,2,1,NA,4,2,5,NA,2,1,8,8,2,1,2,3,1,NA,NA,1,1,NA,2,Rowing,NA,NA,NA,NA,15,NA,NA,NA,NA,3,3,4,4,2,3,3,4,2,3,4,4,3,2,3,5,2,2,2,2,3,4,3,3,4,3,3,2,5,2,4,2,2,3,4,4,4,2,4,4,2,1,4,4,2,4,4,5,5,5,3,3,6,4,5,5,2,5,2,4,3,6,2,7,2,4,2,4,3,2,2,5,3,3,3,2,3,2,3,3,3,3,2,5,5,5,5,5,5,5,5,5,7,5,5,5,7,7,7,2,4,2,4,4,2,3,3,2,4,4,3,1,2,2,4,4,4,3,4,4,5,3,2,2,4,4,1,2,4,3,3,5,5,2,4,5,2,3,2,4,1,2,4,4,5,4,4,4,4,5,4,4,3,3,3,4,4,4,3,1,2,2,2,4,5,3,4,4,4,2,2,5,2,4,2,4,2,1,5
Chile,1997,1,1,1,7,1.84,90,3,1,5,3,2,0,1,2,36.67,36.5,36.585,33.44999695,-70.66670227,59,6,09:57:06,2,1,2,1,NA,4,4,4,2,7,6,6,3,1,NA,2,8,1,NA,NA,3,1,NA,2,AEM,NA,NA,NA,NA,5,NA,NA,NA,NA,4,3,2,5,2,2,1,3,2,1,4,2,5,2,3,3,2,3,2,3,3,2,3,3,4,3,2,2,3,2,4,1,1,1,4,4,4,2,4,3,4,2,4,1,4,1,4,3,1,2,5,4,7,2,1,5,1,1,2,2,5,1,3,7,1,2,5,4,2,1,1,2,2,2,2,2,2,1,2,4,6,1,3,4,4,4,5,5,4,5,4,3,5,5,5,5,6,6,6,2,3,3,3,4,4,4,2,2,2,4,2,2,2,3,2,4,4,5,2,2,3,3,4,5,5,4,1,2,3,2,3,5,4,5,5,4,2,4,1,2,4,3,5,5,3,5,4,4,4,3,3,3,3,2,2,3,4,4,4,4,4,3,3,4,4,2,3,4,3,4,4,4,5,4,3,3,3,2,4
METU,1997,2,1,2,6,1.6,46,3,2,NA,NA,2,NA,1,1,36.7,36.5,36.6,39.91169739,32.84030151,70,3,09:48:35,3,2,2,1,NA,4,1,5,NA,3,1,4,4,2,6,2,8,2,1,2,1,1,NA,2,Kazaklar,Mescit toplulu?u,NA,NA,NA,2,5,NA,NA,NA,5,2,1,3,2,4,1,1,1,1,4,2,4,2,4,4,2,3,4,3,4,2,3,2,5,4,5,4,4,4,4,4,2,3,4,5,2,1,2,1,2,1,4,3,3,2,2,6,5,5,4,4,4,5,7,3,4,4,1,2,1,7,6,7,1,7,7,7,7,7,7,7,4,2,2,3,2,3,7,7,6,1,3,3,5,2,2,5,4,3,2,1,5,4,4,3,6,5,6,5,5,3,5,5,5,5,5,5,5,5,2,5,3,2,2,4,7,6,4,5,4,3,2,2,4,4,1,4,4,2,5,5,5,2,3,5,5,3,5,2,1,2,5,5,3,1,1,1,1,3,1,1,3,2,3,5,5,4,3,2,2,4,2,4,3,1,1,4,4,1,1,5,2,4,5,5,2,2,4
METU,1997,2,1,2,7,1.65,42,4,1,NA,NA,2,NA,1,2,36.6,36.6,36.6,39.91169739,32.84030151,70,3,09:44:23,3,2,2,1,NA,4,4,5,NA,8,5,8,8,1,NA,2,8,1,NA,NA,4,1,NA,2,Engelsiz Odt¨¹ Toplulu?u,NA,NA,NA,NA,6,NA,NA,NA,NA,5,2,3,5,5,3,2,3,2,4,5,2,4,3,4,4,2,2,2,2,3,2,3,3,4,2,3,5,5,5,5,5,4,5,5,5,5,4,5,5,5,2,4,5,2,5,5,7,6,4,7,7,7,7,7,7,1,7,1,2,1,3,6,2,2,1,1,1,6,6,1,7,7,7,1,1,2,1,7,2,1,1,2,5,5,5,4,5,5,5,5,5,6,5,5,5,4,6,6,3,2,1,2,3,4,4,1,1,2,2,1,1,2,4,1,5,8,6,2,4,4,4,1,2,1,5,5,5,3,4,5,2,4,1,1,4,5,1,5,5,1,5,2,3,5,5,5,5,5,5,5,5,1,1,1,4,5,4,4,2,4,2,3,5,4,3,1,5,2,4,2,5,2,5,5,5,5,1,5
UCSB,1997,2,2,1,4,1.6256,59.09090909,4,1,0,0,1,0,1,2,36.33333333,36.88888889,36.61111111,34.4329071,-119.8370972,60,9.444444444,11:55:00,5,1,2,1,NA,4,4,5,NA,8,3,7,7,1,NA,2,6,3,1,3,8,2,3,2,TBL,MC,RCSGD,NA,NA,2,1,1,NA,NA,3,2,2,3,2,3,1,2,1,2,4,2,1,2,4,3,2,3,2,3,4,2,3,2,5,2,2,4,3,4,2,4,4,4,4,3,4,3,4,3,3,2,3,3,3,3,3,5,2,1,5,2,5,2,2,2,2,2,2,6,4,2,4,6,1,2,2,7,1,3,1,2,3,2,1,1,2,1,3,6,3,2,2,2,4,4,4,4,1,2,2,2,6,6,3,5,6,6,4,4,5,4,5,3,4,2,5,3,5,2,2,2,2,3,1,5,6,5,1,3,6,6,4,4,5,4,2,4,2,4,4,4,4,3,2,3,3,4,3,5,4,4,4,3,4,5,5,5,4,4,5,5,1,2,2,2,4,4,4,5,2,4,3,4,5,5,3,2,4,5,5,4,3,4,3,5,4,3,4
UCSB,1997,1,1,2,6,1.7272,61.36363636,4,1,12,0,2,NA,1,2,36.55555556,36.72222222,36.63888889,NA,NA,91,13.88888889,NA,5,1,2,1,NA,4,4,3,1,2,1,8,8,1,NA,2,8,1,NA,NA,8,1,NA,2,RHA,Economics,Psychology,Freshman Seminar,Hall Events,7,5,3,2,3,5,2,5,5,4,4,4,4,4,4,5,4,5,2,2,3,1,1,1,2,2,1,1,2,4,1,1,3,4,1,4,2,2,2,2,3,4,4,5,4,2,2,2,4,2,2,4,1,2,2,2,4,4,5,3,2,1,2,2,1,2,1,2,2,1,6,3,6,5,5,3,3,3,2,5,5,3,2,4,6,6,3,3,4,3,5,4,4,3,2,4,3,6,5,5,4,6,6,5,4,4,1,4,3,2,4,4,2,3,2,1,1,2,2,1,5,5,4,2,2,4,5,4,4,5,5,2,2,2,2,2,4,2,2,4,2,2,3,1,1,3,4,4,3,4,5,2,4,3,4,3,3,4,2,4,1,3,5,3,4,2,2,4,5,2,2,3,5,4,3,5,3,5,4,3,2,2,4,1
Chile,1997,2,1,2,6,1.62,67,4,1,0,7,1,NA,1,2,36.5,36.8,36.65,33.44999695,-70.66670227,79,2,12:00:30,2,1,2,1,NA,4,4,5,NA,8,6,7,7,1,NA,2,8,1,NA,NA,3,1,NA,1,NA,NA,NA,NA,NA,NA,NA,NA,NA,NA,2,1,1,4,4,4,4,2,1,4,3,1,5,3,3,4,3,3,3,3,5,3,4,2,5,4,4,3,4,2,4,3,1,4,3,3,2,4,5,4,4,2,3,2,2,1,4,6,2,2,2,5,6,5,2,4,2,4,2,3,2,5,6,5,1,2,1,6,1,1,1,2,2,1,1,1,1,2,2,6,6,2,2,5,5,5,5,5,5,4,5,5,6,5,6,3,5,6,7,4,4,1,4,4,4,5,4,3,4,2,3,3,1,3,1,4,4,4,4,4,5,3,1,4,5,5,4,2,3,4,2,5,3,1,1,3,4,3,5,2,2,2,3,1,5,3,3,5,5,5,4,5,1,1,2,5,5,5,4,1,1,4,2,3,4,2,3,5,3,3,2,4,2,3,4,3,4,2,5
Portugal,1997,2,1,2,7,1.75,75,2,2,0,0,2,NA,1,2,36.7,36.6,36.65,38.71670532,-9.133300781,42,13,11:37:32,8,1,2,1,NA,4,4,5,1,4,4,7,5,1,NA,2,8,3,1,8,2,1,NA,1,NA,NA,NA,NA,NA,NA,NA,NA,NA,NA,1,4,1,5,4,5,2,3,2,2,5,4,5,3,3,4,3,3,3,3,4,3,3,4,4,3,4,4,4,3,4,4,3,4,3,4,5,4,5,5,3,3,3,4,3,1,3,3,3,3,3,3,3,3,3,5,3,5,3,3,3,3,3,3,3,3,5,3,5,3,3,3,5,5,5,5,5,5,3,5,5,5,5,5,5,5,5,5,4,4,5,4,3,7,7,7,5,5,4,3,3,2,1,3,2,2,3,2,5,2,3,2,3,5,3,4,7,7,6,7,7,7,2,4,3,5,2,3,2,3,3,3,2,1,2,4,3,4,5,5,5,4,4,3,3,1,1,1,4,1,4,4,2,4,4,1,2,4,4,4,2,4,5,3,2,2,2,2,4,2,2,3,3,3,4,2,2,1,4
Tsinghua,1997,2,1,1,7,1.66,55,5,2,12,0,2,0,1,2,36.3,37,36.65,39.92889404,116.3883057,21,11,08:15:14,7,3,2,1,0,4,2,5,0,3,1,5,4,1,1,2,8,3,1,3,1,1,8,1,Çå»ª´óÑ§ºÏ³ª¶Ó,Çå»ªµçÊÓÌ¨Ñ§Éú¼ÇÕßÍÅ,Çå»ª´óÑ§Éç¿ÆÍÅÎ¯,Çå»ª´óÑ§Éç¿Æ¿ÆÐ­,Çå»ª´óÑ§ÖÎ°²·þÎñ·Ö¶Ó,NA,NA,5,6,2,4,3,5,4,4,4,1,4,1,4,4,4,3,1,2,2,1,1,1,2,3,1,2,1,5,2,2,4,4,1,5,3,2,5,5,5,5,3,5,5,1,2,5,3,1,2,5,2,1,1,1,6,2,5,6,1,1,1,4,2,1,2,5,5,1,7,1,5,1,1,2,2,2,2,1,2,2,1,1,1,5,3,2,3,4,3,4,5,4,4,4,4,6,4,4,5,6,7,7,2,3,1,1,2,2,3,3,2,2,1,5,5,1,3,1,5,7,6,6,4,5,6,4,4,4,4,1,3,3,4,2,5,2,3,4,5,3,4,4,4,1,1,3,3,4,3,2,5,4,4,5,5,2,3,2,2,1,4,3,2,1,4,3,5,3,2,2,4,4,3,3,5,3,2,5,5,4,5,4
Tsinghua,1997,1,1,2,2,1.88,85,3,2,20,0,2,0,1,2,36.7,36.6,36.65,30.58009338,114.273407,87,17,11:20:45,7,3,2,1,0,4,4,5,0,3,1,6,6,1,1,2,8,1,1,1,5,2,1,1,×ÀÓÎÐ­»á,ÇàÄê´«Ã½ÖÐÐÄ,NA,NA,NA,5,3,NA,NA,NA,2,3,3,3,3,3,2,3,3,2,3,2,3,3,3,3,3,3,2,3,2,3,3,3,4,3,2,4,4,4,4,3,4,4,4,4,4,4,3,4,3,3,4,4,4,3,4,6,5,5,5,6,6,5,6,3,5,3,5,6,6,5,5,5,5,5,2,6,1,2,7,6,2,2,2,2,4,2,6,3,3,2,3,5,5,4,5,5,5,4,5,5,5,2,4,5,4,6,6,3,2,3,2,2,4,4,4,4,3,2,2,2,2,4,2,3,3,4,3,2,1,3,2,4,5,5,2,3,2,3,3,5,2,1,3,4,4,4,3,3,3,3,4,4,4,3,3,4,5,3,4,4,2,2,3,2,3,4,3,2,2,4,3,4,4,3,2,4,3,3,3,3,2,4,3,3,4,2,2
UCSB,1997,2,1,1,7,1.651,54.54545455,2,1,0,0,2,NA,1,2,36.11111111,37.22222222,36.66666667,34.4329071,-119.8370972,87,8.333333333,NA,5,1,2,1,NA,4,4,5,NA,4,4,3,3,1,NA,2,4,1,NA,NA,5,1,NA,1,NA,NA,NA,NA,NA,NA,NA,NA,NA,NA,3,1,1,4,2,2,1,4,1,1,3,2,1,4,2,5,5,5,4,4,5,4,5,2,2,4,5,5,5,5,5,5,5,5,4,5,5,5,5,5,5,5,5,5,5,5,5,3,2,2,7,6,2,2,5,4,6,3,7,2,6,5,6,5,6,3,7,5,1,5,1,1,6,3,3,2,1,3,1,3,3,2,4,3,3,3,3,3,3,3,3,3,3,4,4,4,4,4,4,4,4,4,4,4,2,4,4,4,3,4,2,2,3,2,2,4,5,4,4,4,4,4,1,2,2,5,4,1,4,5,3,3,2,2,1,2,1,2,2,1,4,4,3,4,5,5,5,5,4,3,4,3,1,2,4,5,4,3,4,1,2,4,4,3,2,5,1,2,5,5,4,4,2,5,4,5,5,2,1
UCSB,1997,1,1,1,4,1.7272,75,4,1,3,3,1,0,1,2,36.16666667,37.22222222,36.69444444,34.4329071,-119.8370972,76,10,11:59:00,5,1,2,1,NA,4,4,5,NA,8,3,7,7,1,NA,2,6,1,NA,NA,1,1,NA,1,NA,NA,NA,NA,NA,NA,NA,NA,NA,NA,2,4,4,3,1,2,3,3,3,5,4,2,3,3,4,3,2,4,2,3,3,3,3,3,4,2,2,3,4,2,4,2,2,2,2,4,4,4,2,3,2,1,3,2,4,2,3,3,2,2,2,3,2,2,2,2,1,2,1,2,2,3,2,4,2,4,3,3,1,2,1,1,2,2,3,3,4,3,3,3,4,1,3,3,3,3,4,4,2,2,2,2,7,3,4,4,4,4,4,3,2,2,2,3,3,2,2,2,2,2,3,3,4,3,3,2,5,4,2,2,4,4,3,4,4,4,2,2,3,3,3,4,4,2,4,4,4,2,2,3,3,4,4,2,4,4,3,4,3,3,4,3,2,3,3,3,4,4,3,2,4,2,4,3,2,3,4,4,4,4,4,2,3,2,3,2,3,2,4
UCSB,1997,1,1,2,7,1.7272,65.90909091,2,1,0,0,2,NA,1,2,36.44444444,36.94444444,36.69444444,34.4329071,-119.8370972,83,13.33333333,11:50:00,5,1,2,1,NA,4,2,4,1,8,2,6,6,1,NA,2,8,1,NA,NA,1,1,NA,1,NA,NA,NA,NA,NA,NA,NA,NA,NA,NA,2,5,1,3,4,4,1,2,2,2,3,5,2,3,3,4,3,3,3,3,4,3,4,4,5,4,5,4,3,3,4,3,2,4,2,5,2,2,2,2,2,2,4,3,4,4,4,5,5,5,5,6,5,5,6,5,3,5,5,4,4,4,4,6,2,2,2,4,2,2,2,6,2,2,3,2,3,3,3,3,2,2,2,5,5,5,5,5,5,5,5,5,3,5,5,5,4,4,5,3,3,3,2,3,3,3,4,3,4,4,3,4,2,4,2,3,4,3,1,1,1,2,4,4,4,4,2,3,3,2,4,4,3,3,4,3,3,4,4,3,3,3,4,5,5,5,4,4,5,4,4,4,3,3,3,4,5,5,4,1,4,3,5,2,5,3,2,4,4,4,4,2,2,3,3,3,3,2,3
Tsinghua,1997,2,1,2,1,1.58,43.7,2,2,0,0,2,0,1,2,36.6,36.8,36.7,30.58009338,114.273407,78,17,11:06:12,7,3,2,1,0,4,4,5,0,5,1,5,5,1,1,1,8,3,1,1,1,2,1,2,NA,NA,NA,NA,NA,0,0,0,0,0,4,3,3,4,4,3,2,2,4,3,4,4,4,2,2,1,2,3,2,2,2,2,2,2,2,3,2,2,2,2,2,2,2,2,2,2,2,2,2,2,2,2,2,2,2,2,2,2,2,2,2,3,3,2,2,4,2,2,3,2,3,2,2,2,2,5,4,4,5,3,3,2,4,3,5,6,6,5,3,6,5,5,5,4,4,4,3,4,4,4,4,4,5,2,3,5,4,3,6,3,3,2,4,3,2,4,3,4,3,2,2,3,2,3,2,3,2,4,2,2,2,2,2,3,4,3,2,2,2,3,3,4,3,2,3,4,4,3,2,4,2,2,3,3,4,2,2,3,3,3,3,3,2,2,2,3,2,3,3,3,2,3,2,3,2,2,4,2,2,2,2,2,3,2,3,2,3,3,4
Serbia,1997,2,1,2,6,1.72,55,4,1,4,0,2,NA,1,2,36.7,36.7,36.7,44.81860352,20.46809387,45,12,09:59:24,6,1,2,1,NA,4,4,5,NA,8,4,7,7,1,NA,2,8,1,NA,NA,2,1,NA,1,NA,NA,NA,NA,NA,NA,NA,NA,NA,NA,4,3,4,4,4,5,4,2,2,4,2,2,3,3,4,2,4,3,2,2,3,2,2,3,5,4,2,2,2,1,3,3,2,1,2,3,4,4,1,3,1,1,1,1,1,1,1,2,2,2,5,2,2,5,5,NA,5,NA,2,1,1,2,1,5,2,2,1,8,1,1,1,1,NA,1,5,1,6,NA,2,6,7,1,NA,5,5,5,5,5,5,5,5,5,7,4,6,6,4,6,6,3,1,1,3,1,2,2,1,1,2,1,4,2,1,1,3,5,6,6,1,6,6,6,2,2,2,4,3,5,2,2,2,3,2,2,4,4,3,2,4,5,5,5,5,4,4,4,1,1,1,2,2,3,2,4,2,2,1,4,4,1,1,2,5,4,4,4,1,4,4,4,4,4,3,5,5,4,4,3,2
Tsinghua,1997,2,3,2,7,1.6,48,2,2,4,NA,2,0,1,2,36.6,36.8,36.7,30.58009338,114.273407,87,17,10:15:11,7,3,2,1,0,4,4,5,0,8,4,5,3,1,1,2,8,2,1,8,1,1,3,1,Óè°®ÊÖÓïÐ­»á,ÇàÄê´«Ã½ÖÐÐÄ,NA,NA,NA,9,19,NA,NA,NA,3,3,3,4,4,4,3,4,4,4,4,3,3,3,2,4,2,2,3,3,2,2,3,3,4,1,2,4,3,3,4,3,4,4,4,4,4,3,4,3,4,2,3,3,2,2,4,5,4,5,4,5,3,3,5,5,3,4,4,3,2,4,5,5,3,5,3,5,4,4,4,5,4,3,4,5,5,3,4,5,6,4,4,5,5,4,5,5,4,3,3,4,5,3,3,5,5,4,4,2,3,2,2,4,4,4,4,3,2,2,2,2,2,2,2,3,4,7,4,3,3,4,3,3,4,4,3,2,2,2,2,4,3,1,2,2,2,3,3,4,2,2,2,4,4,3,4,5,4,4,4,3,2,2,2,2,3,3,3,3,2,4,3,3,4,3,3,4,2,3,2,4,2,3,4,3,4,3,3
UCSB,1997,2,1,2,7,1.6002,90.90909091,5,1,0,0,2,NA,1,2,36.72222222,36.72222222,36.72222222,37.55380249,-119.8370972,84,7.222222222,NA,5,1,2,1,NA,4,4,1,NA,2,2,4,3,1,NA,2,8,1,NA,NA,3,1,NA,1,NA,NA,NA,NA,NA,NA,NA,NA,NA,NA,3,2,3,2,2,3,2,3,2,2,4,3,2,2,3,3,2,3,2,3,2,2,2,3,4,2,2,4,3,2,3,3,2,2,4,4,4,3,4,4,4,2,2,2,4,2,3,5,4,3,4,5,4,4,4,4,2,3,4,4,3,4,4,4,2,4,4,4,2,3,4,4,2,2,3,3,3,4,3,4,4,2,2,4,4,4,4,4,4,4,4,4,5,4,4,4,4,3,4,2,4,3,2,3,3,3,2,4,3,2,2,4,2,3,2,1,3,4,3,3,3,3,4,2,4,2,1,4,3,4,4,4,4,2,4,4,4,4,4,2,2,4,4,4,4,4,3,4,4,4,4,4,2,2,3,2,4,4,5,2,2,4,4,4,3,3,2,4,4,4,3,4,2,4,3,4,4,2,4
VCU,1997,2,1,2,6,1.8034,100,4,2,12,0,2,NA,1,2,36.72222222,36.72222222,36.72222222,34.4329071,-77.46029663,60,11.11111111,12:59:09,5,1,2,1,NA,4,4,5,NA,6,3,6,4,1,NA,2,8,1,NA,NA,3,1,NA,1,NA,NA,NA,NA,NA,NA,NA,NA,NA,NA,3,3,4,4,4,3,2,3,2,2,4,4,4,4,3,4,2,3,2,2,4,2,3,5,5,3,4,4,4,2,4,3,2,1,3,4,4,4,4,4,4,1,1,2,2,2,3,4,4,4,6,4,6,5,6,4,4,4,6,5,5,6,4,5,2,5,4,4,4,4,4,5,3,3,4,4,5,3,4,6,5,2,4,4,4,4,4,4,4,4,4,4,7,7,7,7,6,6,6,3,2,3,2,2,3,3,2,3,2,2,2,3,1,2,1,4,7,7,6,6,6,5,3,3,4,3,1,3,4,4,3,5,4,2,4,4,2,4,3,2,4,4,3,4,4,5,5,4,3,4,4,4,3,2,3,2,4,4,4,4,2,4,4,4,2,2,2,4,4,2,4,4,2,4,4,4,3,3,4
UCSB,1997,2,1,2,4,1.7018,53.63636364,4,1,0,0,2,NA,1,2,36.72222222,36.72222222,36.72222222,34.4329071,-119.8370972,54,6.666666667,NA,5,1,2,1,NA,4,4,5,NA,4,5,5,5,1,NA,2,8,1,NA,NA,4,1,NA,1,NA,NA,NA,NA,NA,NA,NA,NA,NA,NA,3,2,2,2,2,3,4,3,2,2,3,3,3,3,4,4,3,2,3,3,3,3,3,4,4,2,3,3,5,2,5,3,3,2,4,3,4,3,4,4,2,2,2,2,2,4,3,3,4,4,3,4,5,4,5,4,4,4,4,3,2,2,3,3,2,3,3,3,3,5,2,3,4,5,4,4,3,3,3,4,5,1,4,4,3,3,4,4,3,2,2,4,3,4,5,4,3,3,3,3,3,2,3,2,2,2,2,2,3,2,2,2,2,3,3,4,5,6,3,4,3,3,1,4,3,5,3,4,4,3,3,4,2,1,3,3,3,1,3,3,3,3,1,2,4,4,4,4,3,3,3,3,2,2,3,2,4,3,3,2,3,3,2,4,3,4,2,3,3,4,3,2,2,2,3,2,3,2,4
Serbia,1997,1,1,1,7,1.75,64,5,2,8,0,2,NA,1,2,36.8,36.7,36.75,44.81860352,20.46809387,65,8,11:02:04,6,1,2,1,NA,4,4,4,1,6,3,6,6,2,1,2,8,1,NA,NA,2,1,NA,1,NA,NA,NA,NA,NA,NA,NA,NA,NA,NA,4,2,5,5,3,4,3,3,5,4,4,3,2,2,4,2,2,2,2,2,2,2,2,4,5,1,2,1,2,1,1,1,2,1,1,1,4,4,3,4,4,1,1,1,4,1,4,5,2,2,4,4,8,1,2,NA,2,NA,1,2,2,8,1,8,1,2,NA,4,NA,1,1,1,1,1,NA,NA,1,NA,1,3,4,1,NA,5,5,5,5,5,5,5,5,5,6,5,5,5,5,5,6,4,4,1,3,3,4,4,2,3,4,2,2,2,1,2,3,5,7,7,6,6,7,7,4,3,3,4,2,2,2,3,3,5,3,3,3,2,4,4,4,4,4,4,4,3,4,4,1,1,1,3,5,5,4,2,1,1,1,2,4,4,4,2,3,4,3,3,4,4,4,5,5,5,2,3,3,3,3,4,2
UCSB,1997,2,1,2,7,1.62,55.5,4,1,0,0,2,NA,1,2,36.5,37,36.75,34.4329071,-119.8370972,64,6.111111111,NA,5,1,2,1,NA,4,2,4,1,2,2,2,2,1,NA,2,8,1,NA,NA,3,1,NA,1,NA,NA,NA,NA,NA,NA,NA,NA,NA,NA,4,4,4,4,4,2,2,2,2,4,4,2,4,2,3,3,4,2,2,3,2,3,3,3,4,3,2,2,2,2,2,2,2,2,2,2,2,2,2,2,2,2,2,2,2,2,2,2,2,2,2,6,5,4,2,2,6,6,2,5,2,6,6,6,2,2,2,6,2,6,6,6,2,2,2,2,2,2,6,4,6,2,2,5,5,5,5,5,5,5,5,5,3,5,5,5,5,5,5,2,2,2,2,3,2,5,4,2,2,2,2,2,4,4,4,3,3,4,1,3,3,3,5,4,4,3,2,2,2,2,2,4,2,2,2,2,2,2,4,3,3,4,2,2,4,4,4,4,4,4,4,4,2,4,2,2,4,4,4,4,4,4,4,2,4,4,4,2,4,2,3,3,2,2,4,4,4,4,4
Tsinghua,1997,2,1,2,7,1.55,37.8,2,2,4,0,2,0,1,2,36.9,36.6,36.75,30.58009338,114.273407,78,17,11:10:30,7,3,2,1,0,4,2,5,0,8,1,3,3,1,1,2,3,3,1,2,1,2,1,2,¼Ò½Ì,NA,NA,NA,NA,2,NA,NA,NA,NA,2,3,2,2,4,5,3,1,3,5,5,2,2,2,4,3,4,4,3,3,1,3,2,5,4,2,3,2,4,1,4,3,1,2,5,4,4,3,4,3,1,1,1,3,2,2,3,5,6,6,4,7,5,6,6,6,2,6,5,4,6,1,6,5,6,1,1,6,3,2,3,3,3,2,2,1,4,1,6,4,2,4,1,5,5,5,5,5,5,5,5,5,1,1,1,4,5,2,3,2,2,3,2,5,2,2,2,3,2,4,2,3,1,3,1,3,2,4,2,3,2,4,1,1,5,5,1,2,2,2,5,5,3,1,4,4,2,2,4,1,1,2,4,5,3,2,2,4,4,2,4,5,3,2,2,4,4,3,5,5,2,4,3,4,4,2,5,4,5,3,3,4,2,4,3,3,5,3,3
UCSB,1997,2,1,1,6,1.5748,47.72727273,3,1,2,0,1,0.5,1,2,36.61111111,36.88888889,36.75,34.4329071,-119.8370972,58,10,10:51:00,5,1,2,1,NA,4,4,5,NA,6,3,8,6,1,NA,2,6,3,8,5,5,1,NA,1,NA,NA,NA,NA,NA,NA,NA,NA,NA,NA,4,4,3,4,2,4,2,4,2,3,5,3,4,3,3,3,2,2,2,2,3,2,3,3,5,2,3,4,4,2,4,3,3,2,4,4,4,4,4,4,4,2,3,3,4,4,4,3,3,1,3,4,5,2,2,3,1,5,2,5,2,2,1,5,1,2,2,4,3,3,3,3,3,3,2,2,3,2,3,4,5,2,3,4,4,4,4,4,4,4,4,4,5,7,6,6,5,5,5,4,4,2,2,3,3,4,2,3,2,2,1,1,1,2,1,5,5,5,3,3,3,3,1,3,2,5,4,4,3,5,5,2,4,1,1,2,5,1,4,3,3,3,4,2,5,5,5,5,4,4,4,4,1,3,2,4,5,5,4,4,2,3,2,4,3,3,2,2,4,4,4,4,1,4,4,3,4,2,2
Tsinghua,1997,1,1,2,7,1.62,74,2,2,0,0,2,0,1,2,36.7,36.8,36.75,30.58009338,114.273407,87,17,11:23:03,7,3,2,1,0,4,3,5,0,4,2,4,4,1,1,2,5,2,8,3,3,1,3,2,NA,NA,NA,NA,NA,NA,NA,NA,NA,NA,5,4,4,5,5,5,1,5,4,4,5,4,1,4,2,1,2,2,2,2,2,2,2,4,4,2,1,4,3,4,3,4,4,4,4,4,3,4,4,3,4,4,4,4,4,3,4,4,4,4,4,4,7,4,4,4,4,4,4,4,4,5,4,5,4,4,4,4,3,4,4,4,4,5,4,4,4,4,4,3,3,4,4,5,5,5,5,5,5,5,5,5,3,2,4,7,7,7,7,3,3,2,2,3,3,3,3,3,2,3,3,3,1,3,3,3,4,4,6,6,1,1,2,4,4,4,2,2,2,2,2,4,2,2,3,4,3,4,4,4,3,3,3,3,4,3,4,3,4,4,4,4,4,4,4,4,4,4,3,3,3,3,3,3,4,3,3,3,3,3,3,3,3,4,3,3,3,3,3
Tsinghua,1997,1,1,2,5,1.72,70,3,2,2,0,2,0,1,2,36.8,36.7,36.75,30.58009338,114.273407,87,17,11:22:39,7,3,2,1,0,4,4,5,0,8,3,4,2,1,1,2,8,1,1,1,3,2,1,2,ÒôÀÖÖ®ÓÑ,×ÔÖú¿ÆÑÐ,NA,NA,NA,2,2,0,0,0,2,3,2,3,2,4,2,2,3,2,4,2,2,4,4,3,3,2,3,3,2,2,2,3,4,4,3,4,4,4,4,4,4,4,3,4,5,4,4,3,4,4,5,5,5,4,4,6,5,4,3,6,3,4,5,4,5,3,5,6,6,5,3,6,2,5,2,5,3,5,3,4,2,4,2,2,2,2,4,2,2,1,3,3,4,4,5,4,3,3,4,4,6,2,4,5,6,5,5,4,3,2,3,3,3,4,3,4,3,3,2,3,2,3,2,3,2,4,2,2,2,3,2,4,4,4,2,2,2,3,3,5,4,1,3,4,4,3,2,3,3,3,4,4,4,4,4,4,4,3,4,4,2,2,3,2,4,5,3,3,3,4,4,4,4,4,4,4,2,3,4,4,2,4,4,4,5,3,2
UCSB,1997,2,1,2,7,1.6002,52.27272727,3,1,1,0,1,0,1,2,36.61111111,36.88888889,36.75,34.4329071,-119.8370972,83,13.33333333,10:52:00,5,1,2,1,NA,4,4,5,NA,5,1,8,8,1,NA,2,5,1,NA,NA,3,2,5,2,Circle K,NA,NA,NA,NA,4,NA,NA,NA,NA,2,4,2,2,3,3,2,2,2,2,3,4,3,4,3,4,2,3,3,3,4,3,3,4,5,3,4,5,4,4,4,4,4,4,4,4,4,5,5,4,4,4,4,4,4,4,4,5,5,4,5,5,5,5,5,4,3,4,4,5,4,5,4,5,3,4,4,4,4,3,3,5,4,4,4,4,4,4,5,4,3,4,4,4,5,4,5,4,4,4,4,4,7,6,6,6,6,6,5,3,2,1,2,2,3,3,2,2,2,4,3,3,2,3,2,5,6,5,3,4,4,4,4,2,4,4,2,2,2,4,3,4,4,2,4,4,2,4,2,2,3,2,4,4,4,4,4,4,3,4,4,4,2,3,2,2,2,3,3,4,2,3,2,4,3,2,3,4,4,4,2,4,2,4,4,4,4,2,2
UCSB,1997,2,1,1,7,1.7018,54.54545455,4,1,0,0,2,NA,1,2,36.66666667,36.88888889,36.77777778,34.4329071,-119.8370972,68,5.555555556,NA,5,1,2,1,NA,4,4,5,NA,1,NA,6,6,1,NA,2,5,1,NA,NA,1,1,NA,1,NA,NA,NA,NA,NA,NA,NA,NA,NA,NA,3,2,1,5,5,4,1,1,1,3,3,2,4,3,3,5,3,3,3,2,4,2,4,2,5,2,4,3,3,3,2,4,3,2,4,4,4,4,4,4,2,1,1,1,4,1,3,3,1,5,3,5,5,1,2,3,5,2,4,5,1,2,7,6,2,3,3,2,3,3,2,2,3,5,3,2,5,2,2,3,5,5,3,5,5,5,5,5,4,3,5,4,7,7,7,7,7,7,7,2,2,1,2,1,1,2,2,2,2,2,2,3,2,2,2,5,6,5,1,4,4,4,1,3,4,4,3,4,2,2,5,4,2,1,3,2,2,2,3,4,3,4,4,3,4,3,3,3,3,4,3,4,3,4,3,2,4,3,2,2,3,3,4,4,4,3,3,3,4,4,3,4,2,4,4,3,3,2,4
UCSB,1997,2,1,1,7,1.6002,61.81818182,3,1,2,0,2,NA,1,2,36.83333333,36.72222222,36.77777778,34.4329071,-119.8370972,55,10.55555556,12:00:00,5,1,2,1,NA,4,4,5,NA,4,1,6,5,1,NA,2,6,1,NA,NA,1,1,NA,1,NA,NA,NA,NA,NA,NA,NA,NA,NA,NA,2,3,2,4,4,4,2,2,3,3,3,4,4,2,3,5,3,4,2,4,3,4,3,2,4,3,2,3,4,4,4,3,2,2,4,4,4,3,3,3,3,2,3,2,2,2,3,2,5,2,5,2,3,2,2,3,2,3,2,2,2,2,5,2,2,2,6,2,2,3,1,6,2,2,2,2,1,3,2,2,2,2,3,4,3,4,4,4,3,4,4,2,3,6,4,4,4,4,5,2,2,1,2,1,2,2,2,2,1,2,4,2,2,2,1,2,3,5,2,2,3,1,2,3,4,4,3,2,2,2,2,4,2,2,3,2,2,3,2,2,2,3,4,3,4,5,3,3,3,3,3,3,2,2,2,2,4,3,4,2,2,3,3,2,2,3,3,4,4,4,4,3,4,4,3,2,3,2,2
Tsinghua,1997,2,1,2,7,1.6,67,2,2,0,0,2,0,1,2,36.9,36.7,36.8,30.58009338,114.273407,87,17,11:12:19,7,3,2,1,0,4,4,5,0,6,4,3,3,1,1,2,8,3,1,1,1,2,1,1,FD¶¯ÂþÉç,NA,NA,NA,NA,NA,NA,NA,NA,NA,3,2,2,3,3,4,2,2,1,3,2,4,4,3,2,2,4,4,4,4,3,2,4,2,3,3,2,2,3,2,3,3,2,2,3,3,3,3,3,3,3,2,2,2,2,3,3,4,2,2,2,3,3,4,6,4,2,1,2,4,3,4,2,4,3,6,3,4,4,4,5,5,3,4,6,4,6,2,5,4,4,5,4,4,4,4,4,4,4,4,4,4,5,4,2,6,6,6,6,4,4,4,4,4,4,4,3,3,4,2,2,4,2,2,2,2,2,2,2,3,4,4,4,2,3,3,2,2,2,2,2,4,3,3,2,3,3,2,4,4,2,2,3,5,3,1,2,3,3,2,3,3,2,2,3,2,3,2,3,3,3,4,4,4,4,1,3,4,3,2,2,4,4,2,2,3,3,2,3
Tsinghua,1997,2,1,2,1,1.59,50,2,2,0,0,2,0,1,2,36.75,36.85,36.8,30.58009338,114.273407,66,13,10:01:25,7,3,2,1,0,4,4,5,0,6,4,7,6,1,1,2,4,1,1,1,1,2,1,1,Ñ§Éú»á,NA,NA,NA,NA,5,NA,NA,NA,NA,4,4,3,2,5,4,1,4,1,1,3,3,3,1,2,3,4,4,2,3,2,3,5,2,4,3,1,2,3,2,4,4,2,2,4,4,4,4,4,3,3,3,3,2,2,3,4,4,4,4,4,4,5,4,4,4,4,4,4,4,4,4,4,4,4,4,4,4,4,4,4,4,4,4,3,4,4,4,4,4,4,4,4,4,4,4,4,5,5,5,5,5,3,2,4,4,4,5,5,4,2,2,4,3,4,4,3,3,2,2,2,3,2,4,2,3,2,4,2,2,2,2,2,4,4,4,2,1,1,1,1,4,3,1,2,4,4,2,2,3,2,2,3,4,4,2,2,4,4,3,4,4,3,2,2,4,4,4,3,3,2,4,3,4,4,2,3,4,3,2,3,2,2,4,4,3,3,3,3
Kassel,1997,2,1,1,2,1.75,65,4,2,16,0,2,NA,1,2,36.8,36.8,36.8,51,9,88,1,12:02:36,1,1,2,1,NA,4,4,4,2,6,3,4,3,1,NA,2,6,3,2,4,2,1,NA,1,NA,NA,NA,NA,NA,NA,NA,NA,NA,NA,3,3,5,5,4,3,3,3,4,4,4,3,4,3,4,4,3,3,3,3,3,2,3,2,4,3,2,4,4,3,4,4,3,3,4,4,5,4,4,4,4,1,3,2,3,2,4,2,3,2,2,4,3,5,3,3,1,3,4,2,3,3,2,5,6,1,2,4,2,1,2,1,1,2,2,2,1,1,2,5,5,1,3,5,4,4,5,4,5,3,5,5,6,3,5,4,5,4,5,4,2,2,2,3,3,3,2,2,3,3,3,2,4,2,2,4,5,7,4,4,2,3,2,4,1,4,3,4,2,2,3,3,2,2,3,4,2,1,4,2,2,3,3,4,3,5,4,4,4,3,4,4,1,1,1,2,4,4,5,3,2,4,4,2,3,4,2,4,3,4,4,3,2,2,4,3,3,2,4
Tsinghua,1997,2,1,1,7,1.65,53,3,2,0,0,2,0,1,2,36.88,36.8,36.84,30.58009338,114.273407,72,14,11:14:25,7,3,2,1,0,4,4,5,0,8,2,6,6,1,4,2,5,1,1,1,3,2,2,2,NA,NA,NA,NA,NA,NA,NA,NA,NA,NA,3,3,2,4,3,3,3,2,4,2,3,4,3,1,1,1,3,3,3,3,1,4,4,1,3,4,1,2,2,2,3,2,2,2,2,2,2,2,2,2,2,2,2,2,2,3,2,3,1,1,2,4,3,2,2,1,2,2,2,2,2,1,4,4,2,4,2,3,1,2,1,2,2,2,3,3,3,3,2,3,3,2,3,4,4,4,4,4,4,3,4,4,3,3,3,4,5,5,5,2,2,2,2,2,2,2,3,2,3,2,2,4,2,3,3,3,4,3,2,2,2,5,3,3,4,4,2,2,2,2,2,4,4,2,3,2,2,2,4,3,2,2,3,4,4,3,2,4,4,3,4,4,2,2,2,2,2,2,3,4,3,3,3,4,3,2,3,4,3,2,3,3,3,3,3,3,3,2,4
UCSB,1997,2,1,1,7,1.6256,63.63636364,4,1,2,0,2,NA,1,2,37.05555556,36.72222222,36.88888889,34.4329071,-119.8370972,80,8.333333333,NA,5,1,2,1,NA,4,4,4,1,4,2,3,3,2,7,2,8,1,NA,NA,8,1,NA,1,NA,NA,NA,NA,NA,NA,NA,NA,NA,NA,3,3,3,4,2,4,2,3,2,5,4,4,4,2,3,5,3,3,3,3,3,2,4,4,5,2,3,4,4,4,4,3,2,4,4,4,5,5,5,5,5,2,2,3,4,3,5,2,2,1,2,1,2,4,1,2,1,2,2,4,5,2,7,2,1,2,1,6,1,1,1,1,1,1,1,1,1,1,1,3,3,1,2,4,5,4,5,5,5,5,4,4,4,5,4,3,4,4,4,2,3,2,2,3,2,3,2,3,2,2,3,2,2,2,2,4,6,5,5,3,4,6,2,4,4,4,2,4,4,3,3,4,4,2,4,4,3,2,2,4,3,4,4,4,4,5,5,5,3,3,4,4,1,1,1,2,5,4,5,1,2,3,4,2,3,4,2,3,4,5,5,5,2,5,4,3,3,3,4
Kassel,1997,2,1,2,6,1.64,63,3,2,1,0,2,NA,1,2,37,36.8,36.9,51.31669617,9.5,54,1,09:36:21,1,1,2,1,NA,4,2,5,NA,3,1,7,7,1,NA,2,8,1,NA,NA,6,1,NA,2,Uni,Sport,NA,NA,NA,7,4,NA,NA,NA,3,3,3,3,4,4,1,2,2,2,3,4,4,3,4,4,3,2,3,2,4,4,3,4,3,2,3,4,3,3,4,2,1,4,2,4,5,4,5,4,5,2,4,2,3,3,5,6,6,6,6,6,6,6,6,6,4,2,6,6,5,7,6,6,3,7,3,6,2,5,5,2,3,3,3,3,3,3,3,5,3,2,3,4,4,3,5,4,4,3,4,4,7,6,7,5,6,5,6,4,4,2,4,5,3,4,4,2,3,4,2,2,2,3,2,4,6,3,3,3,2,5,3,2,2,4,3,2,2,2,2,4,4,1,4,5,2,2,3,2,3,4,2,3,5,5,5,4,3,3,4,3,2,2,3,3,4,4,4,2,2,3,3,4,5,4,2,4,4,5,5,4,3,2,3,3,4,3,4
UCSB,1997,1,1,1,7,1.8796,100,4,1,2,0,2,NA,1,2,37,36.83333333,36.91666667,34.4329071,-119.8370972,64,6.111111111,NA,5,1,2,1,NA,4,4,5,NA,7,7,6,6,1,NA,2,6,1,NA,NA,1,1,NA,1,NA,NA,NA,NA,NA,NA,NA,NA,NA,NA,5,4,4,4,4,4,4,4,3,4,4,4,4,2,2,2,3,2,2,2,2,2,2,2,4,2,2,2,2,2,2,2,2,2,2,2,2,2,2,2,2,2,2,2,2,2,2,2,2,2,2,2,2,2,2,3,2,3,2,2,2,2,2,2,2,2,1,2,2,2,1,2,1,2,1,2,1,1,2,4,4,1,2,5,5,5,5,5,3,3,4,4,2,4,4,4,3,3,3,2,2,1,2,2,2,2,2,2,2,1,2,3,2,4,2,3,3,5,2,2,2,2,4,3,4,3,4,4,3,4,3,4,3,4,4,3,3,3,3,4,3,3,2,4,3,4,3,3,3,4,4,4,3,3,3,3,4,4,2,3,4,3,3,2,4,4,4,4,4,4,4,4,4,4,2,4,4,4,3
UCSB,1997,1,1,2,4,1.8034,63.63636364,3,1,2,0,1,1,1,2,36.72222222,37.11111111,36.91666667,34.4329071,-119.8370972,83,13.33333333,11:57:00,5,1,2,1,NA,4,2,1,NA,2,2,1,2,1,NA,2,1,1,NA,NA,2,1,NA,1,NA,NA,NA,NA,NA,NA,NA,NA,NA,NA,1,1,1,2,2,1,1,2,2,2,2,2,2,4,4,4,2,2,3,2,4,2,2,4,4,2,4,4,4,4,4,4,4,4,4,4,4,4,4,4,4,4,4,4,4,4,4,4,5,4,6,4,6,5,4,3,4,4,4,4,5,5,3,4,4,6,1,5,1,6,7,3,3,3,3,3,6,4,4,3,3,1,5,4,4,4,4,4,4,4,4,4,5,7,7,7,5,2,3,3,4,3,3,4,4,4,4,4,3,2,2,3,2,3,1,4,3,2,1,1,1,1,5,3,4,4,2,2,2,5,5,5,4,2,2,2,2,4,1,3,1,2,4,3,4,4,1,4,1,5,5,2,3,4,3,2,4,4,4,2,2,4,4,4,2,4,4,4,4,2,4,2,5,4,4,4,4,5,5
UCSB,1997,1,1,1,6,1.8034,72.72727273,2,1,12,0,2,NA,1,2,36.83333333,37.05555556,36.94444444,34.4329071,-119.8370972,86,12.22222222,11:18:00,5,1,2,1,NA,4,2,4,1,7,4,6,5,1,NA,2,8,1,NA,NA,6,1,NA,1,NA,NA,NA,NA,NA,NA,NA,NA,NA,NA,1,1,3,4,3,2,1,1,3,2,2,1,1,1,3,4,3,4,4,4,3,2,5,2,5,2,5,5,4,3,4,2,2,2,2,3,4,2,3,2,1,1,2,1,1,1,4,4,2,4,5,4,5,4,6,4,2,6,2,4,2,5,2,6,2,1,1,7,1,4,4,2,1,1,2,2,2,2,1,6,4,1,2,4,5,5,5,5,4,3,4,4,4,4,3,3,4,4,4,3,1,1,4,1,2,4,1,5,4,2,1,1,2,3,2,5,6,5,5,5,5,3,5,4,4,3,2,5,2,3,4,4,2,2,4,4,4,4,2,2,3,4,4,4,4,3,2,4,4,3,4,4,1,1,1,2,2,4,2,4,4,4,5,4,4,2,2,4,4,2,2,2,4,2,2,2,2,2,1
UCSB,1997,2,1,1,7,1.5748,52.27272727,1,1,0,0,2,NA,1,2,37,36.88888889,36.94444444,34.4329071,-119.8370972,65,9.444444444,19:53:00,5,1,5,8,3,2,2,2,2,2,3,2,2,2,1,2,2,3,2,3,4,1,NA,1,NA,NA,NA,NA,NA,NA,NA,NA,NA,NA,3,3,3,3,3,3,3,3,3,3,3,3,3,5,4,5,3,4,3,3,5,3,3,4,5,3,5,4,2,2,3,4,4,5,3,3,4,2,2,4,3,2,3,4,2,4,3,4,4,4,4,4,4,4,4,4,4,4,4,4,4,4,4,4,4,4,4,4,4,4,4,4,4,4,4,4,4,4,4,4,4,4,4,3,3,4,2,3,3,3,2,4,7,4,3,5,4,3,5,3,3,3,3,3,3,3,3,3,3,3,3,3,3,3,3,3,3,4,5,4,6,5,3,3,3,2,3,4,3,2,3,3,2,3,5,4,3,3,4,2,3,4,3,4,5,5,5,3,3,3,2,4,2,3,3,2,4,4,4,3,2,4,3,4,3,2,4,3,3,4,2,3,4,1,3,3,4,3,2
UCSB,1997,2,1,2,6,1.7526,63.63636364,3,1,0,0,2,NA,2,2,36.77777778,37.11111111,36.94444444,34.4329071,-119.8370972,72,10.55555556,11:53:00,5,1,2,1,NA,4,2,5,NA,1,NA,5,3,1,NA,2,8,1,NA,NA,8,1,NA,1,NA,NA,NA,NA,NA,NA,NA,NA,NA,NA,3,2,4,3,4,3,2,3,4,3,4,4,2,3,3,3,3,3,3,3,3,3,3,3,4,3,4,4,4,2,4,2,2,4,4,4,4,3,3,4,3,3,3,3,3,4,4,4,5,4,6,4,6,3,5,4,4,4,4,5,5,5,4,3,4,5,5,5,5,5,5,3,5,5,4,3,5,5,5,5,5,3,4,4,3,4,2,3,4,2,4,3,6,4,5,5,6,6,4,5,5,3,4,2,4,5,5,5,5,2,3,4,3,4,3,3,3,3,5,2,3,2,2,4,4,4,4,5,2,4,5,3,2,3,2,2,4,2,2,4,2,4,4,5,3,5,5,3,3,2,3,2,3,4,3,2,4,4,2,1,4,4,5,3,4,2,2,4,4,2,3,4,5,5,3,3,3,1,4
Bamberg,1997,2,1,2,5,1.71,53,2,2,14,0,2,NA,1,2,37,36.9,36.95,49.88000488,10.88340759,63,4,11:30:18,1,1,2,1,NA,4,4,5,NA,4,1,4,4,1,NA,2,8,1,NA,NA,2,2,3,1,NA,NA,NA,NA,NA,NA,NA,NA,NA,NA,2,1,2,4,5,3,1,1,2,2,1,4,2,4,4,4,3,4,5,3,5,3,4,5,5,4,4,3,5,1,4,3,1,4,4,5,4,4,3,5,3,1,2,2,2,3,4,7,6,7,5,7,7,5,7,6,5,3,5,4,2,6,4,5,4,5,2,6,1,3,2,1,3,6,4,2,2,4,1,7,7,2,5,4,4,2,5,4,4,3,3,3,3,3,4,3,6,5,6,4,5,2,5,3,4,5,4,4,3,5,3,2,2,5,3,5,7,7,5,6,3,4,1,1,2,4,2,5,3,3,4,4,4,1,3,4,3,2,4,3,4,4,3,5,3,5,4,3,3,2,2,3,3,3,2,1,1,4,4,2,1,4,4,3,5,5,2,4,4,5,5,4,3,5,5,2,3,1,5
UCSB,1997,2,1,2,5,1.524,49.09090909,3,1,0,0,2,NA,1,2,36.77777778,37.16666667,36.97222222,34.4329071,-119.8370972,69,8.333333333,10:27:00,5,1,2,1,NA,4,2,4,1,4,4,3,2,1,NA,2,5,1,NA,NA,1,1,NA,1,NA,NA,NA,NA,NA,NA,NA,NA,NA,NA,4,5,2,3,3,4,3,4,2,3,3,2,4,3,2,2,2,2,2,2,3,2,3,4,4,3,2,2,4,3,2,2,1,4,3,3,4,2,3,2,3,2,2,2,2,1,4,2,5,3,5,3,2,5,4,5,3,2,2,3,2,4,2,3,2,2,3,6,3,3,4,2,2,3,3,3,5,2,3,3,4,3,3,4,4,4,4,4,3,2,3,2,4,3,2,4,2,2,2,2,2,2,2,2,3,2,2,2,2,2,2,4,2,2,4,4,6,7,4,4,4,4,2,4,4,4,3,4,4,5,5,5,4,2,4,4,4,4,2,4,2,2,4,3,4,2,2,3,3,4,3,3,2,2,3,2,4,4,4,3,2,2,3,2,2,2,2,4,4,2,2,3,4,4,2,2,2,2,2
UCSB,1997,1,4,2,4,1.8288,58.63636364,3,1,3,0,2,NA,1,2,36.94444444,37,36.97222222,34.4329071,-119.8370972,76,10,11:22:00,5,1,2,1,NA,4,4,5,NA,6,1,5,5,1,NA,2,8,1,NA,NA,3,1,NA,2,QSU,FUQIT,NA,NA,NA,5,6,NA,NA,NA,4,3,3,1,4,4,2,3,4,2,4,4,4,2,2,3,2,2,2,2,2,2,3,3,5,2,3,5,5,4,5,4,2,4,5,4,4,4,4,4,4,3,4,4,2,2,4,2,2,2,4,5,2,5,5,3,2,2,5,2,5,2,2,5,2,2,2,3,2,2,2,2,3,3,2,4,3,2,2,3,4,2,2,4,5,4,4,5,5,5,5,4,6,6,5,5,6,4,5,2,2,2,2,2,2,2,2,2,2,2,2,2,2,2,3,4,3,4,2,2,3,2,1,1,4,5,5,5,3,2,5,2,2,2,2,4,4,3,2,4,2,4,5,3,4,4,4,4,4,3,4,2,2,2,2,2,4,4,4,2,2,4,2,4,2,3,2,4,4,4,2,2,3,4,2,2,3,2,2
Serbia,1997,2,1,2,7,1.78,72,3,2,3,0,2,NA,1,2,37.2,36.8,37,44.81860352,20.46809387,45,12,11:00:39,6,1,2,1,NA,4,4,5,NA,4,4,5,5,2,1,2,5,1,NA,NA,1,1,NA,1,NA,NA,NA,NA,NA,NA,NA,NA,NA,NA,4,4,3,5,5,4,3,3,4,4,4,5,4,2,3,3,4,2,1,2,3,2,2,3,4,2,2,2,3,2,2,1,1,2,1,2,2,3,3,4,1,1,2,1,1,2,1,4,4,4,4,4,2,4,4,4,4,4,4,4,2,4,4,3,4,4,4,4,4,4,4,4,4,4,4,4,4,4,4,4,4,4,4,5,4,3,4,4,3,3,3,2,3,2,3,2,3,2,3,2,2,1,2,3,2,3,3,2,2,2,2,2,2,3,2,3,4,4,1,3,4,3,4,2,3,4,2,2,2,2,4,4,3,2,2,2,3,4,3,3,3,3,3,2,3,2,2,2,2,4,3,3,3,4,3,2,2,3,2,4,3,2,3,4,4,2,3,4,3,2,2,3,3,2,3,2,3,2,4
Zurich,1997,2,3,1,6,1.63,54,3,1,0,0,1,5,1,2,37,37,37,47.03039551,7.520797729,76,4,10:29:23,1,1,2,1,NA,4,2,4,2,2,2,6,6,1,NA,2,8,3,1,5,1,1,NA,1,NA,NA,NA,NA,NA,NA,NA,NA,NA,NA,3,3,3,2,4,4,3,4,3,4,4,4,4,2,3,2,3,3,3,2,2,3,2,3,3,2,2,2,4,4,4,3,2,3,2,3,4,4,4,4,4,2,2,2,3,2,3,3,2,2,1,1,3,2,3,6,2,2,1,3,2,6,1,5,1,2,1,5,1,1,1,2,1,1,1,1,1,1,1,4,5,3,1,3,3,3,3,3,3,2,2,2,7,3,5,3,5,5,5,2,2,4,2,3,3,4,2,2,4,4,2,4,2,4,2,3,3,4,2,4,2,1,3,2,4,4,3,4,2,2,3,3,3,2,3,4,4,2,4,4,4,4,4,4,3,4,4,4,2,4,3,1,1,4,2,3,3,3,4,3,3,4,3,2,4,4,3,3,4,5,3,2,1,4,4,2,2,1,5
UCSB,1997,2,1,2,7,1.6002,46.81818182,4,1,0,0,2,NA,1,2,36.94444444,37.05555556,37,34.4329071,-119.8370972,69,8.333333333,11:06:00,5,1,2,1,NA,4,2,5,NA,8,4,5,5,2,2,2,4,1,NA,NA,3,2,3,2,Cypress SC,OA SADD,NA,NA,NA,2,3,NA,NA,NA,4,5,4,5,5,4,5,3,4,4,4,4,4,3,3,3,2,2,2,2,3,2,2,3,4,2,3,3,4,2,4,3,4,3,2,3,4,4,4,4,4,1,3,3,3,4,3,2,4,2,4,4,2,2,2,2,2,3,4,2,2,5,4,5,1,2,2,2,2,2,3,4,2,2,2,2,3,2,3,3,3,2,2,5,5,5,5,5,4,3,3,4,5,6,5,4,3,4,4,2,4,1,2,3,2,3,2,3,2,1,2,2,2,3,1,5,7,5,4,3,5,3,2,4,4,4,3,3,3,3,3,4,3,2,3,3,3,4,2,3,3,2,4,3,5,3,4,4,4,4,4,4,1,1,3,2,4,4,4,3,2,4,4,4,3,1,3,4,3,2,1,3,2,3,3,3,3,2,3
UCSB,1997,2,3,2,1,1.6002,57.72727273,3,1,0,0,1,0.25,1,2,37.27777778,36.77777778,37.02777778,34.4329071,-119.8370972,58,10,10:49:00,5,1,2,1,NA,4,4,5,NA,8,2,8,8,2,1,2,4,1,NA,NA,8,1,NA,2,NA,NA,NA,NA,NA,NA,NA,NA,NA,NA,2,2,4,3,1,2,3,3,2,3,4,1,2,3,4,4,2,3,2,2,2,3,3,3,5,2,3,4,4,2,5,5,4,2,5,4,5,5,4,4,2,1,4,2,5,2,5,1,2,1,1,1,3,2,3,1,5,2,2,2,3,1,1,5,2,3,3,5,3,2,3,3,2,4,1,3,3,2,4,6,7,2,4,5,5,5,5,5,5,5,5,5,3,5,5,6,4,4,4,2,2,2,1,2,2,3,1,1,2,2,2,1,1,2,2,5,7,6,5,7,6,2,2,5,4,4,2,2,2,2,5,4,2,2,4,4,4,3,2,4,3,4,5,4,5,4,4,3,5,5,3,4,3,2,3,2,5,4,2,3,3,4,3,3,4,2,2,4,4,4,4,4,1,4,4,4,4,3,2
UCSB,1997,1,1,1,7,1.905,78.63636364,3,1,2,0,1,1,1,2,37,37.11111111,37.05555556,34.4329071,-119.8370972,80,8.333333333,NA,5,1,2,1,NA,3,3,4,1,7,3,8,8,1,NA,2,4,1,NA,NA,8,1,NA,1,NA,NA,NA,NA,NA,NA,NA,NA,NA,NA,3,3,3,2,2,4,2,3,3,4,4,2,3,3,5,3,2,2,1,3,3,2,2,5,4,2,2,1,1,1,3,1,1,1,1,1,1,1,1,1,1,1,1,1,1,1,1,3,6,3,4,4,3,2,5,4,2,4,2,6,4,3,3,6,3,1,3,2,2,3,2,2,3,2,3,2,2,3,2,2,3,2,3,5,5,5,5,5,5,5,5,5,7,7,7,7,7,7,7,4,3,3,2,2,3,3,3,3,4,3,3,5,3,3,3,3,4,4,4,4,7,4,2,2,4,4,4,4,4,4,3,3,3,3,4,3,4,3,2,2,3,4,4,3,5,5,5,5,5,5,4,4,3,3,3,4,3,5,1,5,3,3,2,3,3,3,4,3,4,3,2,4,3,4,3,4,3,5,3
UCSB,1997,2,1,2,7,1.7526,59.09090909,4,1,2,0,2,NA,1,2,37,37.11111111,37.05555556,34.4329071,-119.8370972,57,6.111111111,NA,5,1,2,1,NA,4,4,5,NA,8,3,8,8,2,1,2,8,1,NA,NA,1,1,NA,1,NA,NA,NA,NA,NA,NA,NA,NA,NA,NA,4,2,2,3,2,4,1,2,1,2,5,1,4,2,3,4,3,2,2,3,3,2,1,3,5,3,4,3,5,4,3,5,5,5,5,5,4,5,4,4,2,4,4,4,3,3,3,6,7,6,7,7,7,7,7,5,5,5,6,6,6,4,6,7,5,5,4,6,5,5,3,2,5,4,4,2,2,3,3,3,2,5,6,5,5,5,5,5,5,5,5,5,7,6,7,7,7,5,5,2,4,1,3,2,2,4,4,2,2,2,2,4,1,2,1,4,6,5,5,4,6,1,1,3,2,5,4,3,3,4,4,3,2,1,3,4,4,2,2,4,2,3,2,4,5,5,5,5,4,3,4,4,1,3,3,4,5,5,1,3,1,3,4,1,4,4,2,4,4,4,5,5,1,3,4,3,2,1,4
UCSB,1997,1,1,1,7,1.9812,84.09090909,4,1,0,0,2,NA,1,2,37.11111111,37.05555556,37.08333333,34.4329071,-119.8370972,64,6.111111111,NA,5,1,2,1,NA,4,4,4,1,2,1,5,5,2,1,2,5,1,NA,NA,1,1,NA,1,NA,NA,NA,NA,NA,NA,NA,NA,NA,NA,4,4,4,4,3,3,3,4,4,3,4,4,4,2,2,4,3,2,2,2,3,4,2,2,5,2,4,2,4,1,4,2,3,3,1,1,3,1,2,2,3,1,1,1,4,1,1,1,2,1,4,4,1,1,4,5,1,2,2,2,1,1,2,1,2,2,2,5,2,2,2,1,1,1,3,4,3,5,2,4,4,2,4,5,5,5,5,5,5,5,5,5,2,5,5,4,5,6,4,3,3,2,4,5,3,4,3,3,2,3,2,2,3,4,3,2,1,2,1,2,2,2,3,2,2,5,4,3,3,3,4,2,2,2,2,2,3,3,3,4,3,2,4,3,1,5,3,4,4,2,3,2,1,1,1,2,3,4,5,3,3,4,4,4,3,3,2,5,5,1,2,2,2,5,2,2,4,5,1
Kassel,1997,2,1,2,5,1.8,62,2,2,0,2,2,NA,1,2,37.07,37.14,37.105,50.73330688,8.633300781,NA,NA,10:32:19,1,1,2,1,NA,4,4,5,NA,8,5,4,4,2,1,2,8,1,NA,NA,1,1,NA,1,NA,NA,NA,NA,NA,NA,NA,NA,NA,NA,2,3,2,3,3,4,1,2,2,3,4,3,2,3,3,3,2,2,2,2,2,3,2,4,5,2,2,1,3,3,3,2,1,2,2,3,4,2,1,1,2,1,1,1,1,2,2,4,4,4,4,4,4,4,4,4,4,4,4,4,4,4,4,4,4,4,6,2,4,4,4,4,4,4,4,4,4,4,4,7,7,4,4,5,5,4,5,3,1,1,5,4,6,5,5,5,5,5,5,2,4,1,4,4,2,2,4,2,2,4,2,2,3,3,3,5,5,5,3,3,3,3,1,4,1,5,5,3,4,3,5,2,4,1,2,5,5,2,2,4,2,4,5,2,5,4,3,3,3,4,3,2,3,2,3,2,5,4,3,5,2,2,3,3,1,2,1,4,4,2,4,3,3,2,3,2,4,1,1
Poland,1998,2,1,2,7,1.66,63,3,1,21,0,2,NA,1,2,35.3,35.9,35.6,51.1000061,17.03329468,65,2,10:41:26,9,1,2,1,NA,4,4,4,2,3,1,4,4,2,1,2,8,2,1,1,2,1,NA,1,NA,NA,NA,NA,NA,NA,NA,NA,NA,NA,2,2,2,3,4,3,1,3,2,2,4,2,2,2,4,3,4,4,5,4,5,3,3,3,5,4,1,3,3,3,4,2,3,2,2,2,4,3,4,4,4,2,4,4,3,4,3,5,3,4,4,6,4,4,3,2,2,6,2,2,2,4,6,4,2,3,4,4,2,5,5,5,4,5,2,2,4,3,3,6,3,2,2,4,4,4,5,5,3,2,4,2,5,6,6,6,5,5,5,3,3,2,3,3,3,3,3,2,3,2,3,2,1,3,2,4,8,3,2,3,4,6,4,5,4,4,1,2,2,3,2,5,2,2,5,5,4,2,2,2,2,3,4,3,4,4,4,4,4,3,3,3,1,1,2,2,2,4,2,3,3,3,3,3,4,3,3,3,4,4,4,5,4,3,3,3,3,3,1
Kassel,1998,2,1,1,7,1.7,70,2,2,2,0,1,1,1,2,35.74,36.01,35.875,51.36669922,8.800003052,69,-1,08:58:47,1,1,2,1,NA,4,1,3,1,3,1,4,8,2,2,2,2,1,NA,NA,2,2,3,2,Schulklasse,Volleyball,Familie,NA,NA,20,15,3,NA,NA,1,2,1,2,1,3,1,2,1,3,3,2,2,5,4,5,5,3,3,3,4,3,3,5,5,2,5,2,2,1,2,2,2,1,2,1,4,4,3,4,2,2,2,2,1,2,2,3,4,5,4,4,1,2,5,3,3,3,2,3,1,4,2,5,1,4,3,5,7,5,6,6,5,3,3,5,4,5,3,7,7,4,3,4,1,2,2,2,2,1,3,2,1,1,1,1,1,1,1,4,3,3,3,4,4,5,4,2,4,2,2,3,4,4,3,4,6,5,6,6,6,6,4,3,2,5,5,3,4,3,4,2,2,1,2,3,3,4,1,3,2,2,4,5,3,2,3,3,3,3,3,3,4,3,3,2,2,4,2,3,3,2,2,4,4,2,1,3,4,3,2,4,2,4,3,4,4,4,4
Poland,1998,2,1,2,5,1.58,58,3,2,16,8,2,NA,1,2,36.7,36.5,36.6,52.25,21,77,3,11:17:35,9,1,2,1,NA,4,4,5,1,8,3,6,4,1,NA,2,8,2,1,1,1,2,2,2,MU praca,Rodzina,Studenci,Gimnazjum,Dom,3,5,20,2,2,2,1,4,4,3,4,1,4,5,4,3,4,5,3,3,3,4,5,4,4,2,3,3,4,4,5,2,4,3,4,3,5,4,5,4,4,5,3,5,5,5,2,4,4,3,3,5,6,5,6,6,6,6,6,6,5,4,2,4,2,5,6,5,5,2,3,2,4,2,3,2,5,3,3,2,2,3,2,3,4,3,2,2,5,5,5,5,5,5,2,5,5,5,4,5,5,5,6,5,2,2,3,2,4,3,2,2,2,2,2,2,2,1,3,2,3,3,5,2,2,4,3,2,4,2,4,3,4,3,2,4,4,2,2,4,4,4,3,3,3,3,4,3,4,4,5,4,4,4,3,4,4,2,2,3,2,5,4,3,3,2,3,4,4,3,2,2,4,4,4,3,4,4,2,4,4,4,3,4
Poland,1998,2,1,2,6,1.73,58,3,2,16,0,2,NA,1,2,36.7,36.7,36.7,54.3500061,18.66670227,85,0,10:07:26,9,1,2,1,NA,4,4,5,1,2,1,2,2,2,1,2,7,2,1,1,3,1,NA,1,NA,NA,NA,NA,NA,NA,NA,NA,NA,NA,3,3,3,2,3,3,2,3,2,4,5,4,4,3,3,3,4,4,4,3,3,4,3,3,4,4,2,4,2,2,3,4,2,2,2,3,2,2,4,2,3,2,2,2,2,2,3,4,4,4,4,4,4,4,4,4,4,6,4,4,4,4,4,4,4,4,4,4,4,4,4,4,4,4,4,4,4,4,4,4,4,4,4,5,4,3,4,5,4,2,3,3,5,6,6,6,6,6,6,2,4,2,4,2,2,3,3,3,2,2,2,2,1,4,2,4,8,4,2,2,7,5,2,4,5,4,1,4,2,3,3,5,2,1,4,2,2,3,2,2,2,4,5,4,3,2,2,3,3,2,3,2,3,2,3,1,1,4,2,4,2,2,2,4,4,2,2,2,4,2,2,2,5,5,2,3,3,2,4
Zurich,1998,2,1,2,7,1.58,40,2,1,6,0,2,NA,1,2,36.8,36.9,36.85,NA,NA,76,-1,09:33:03,1,1,3,1,NA,4,4,4,1,8,3,8,8,1,NA,2,8,1,NA,NA,1,2,5,2,Nationaler Dachverband,Kantonaler Dachverband,NA,NA,NA,5,3,NA,NA,NA,4,1,3,3,4,5,2,3,2,4,4,2,2,5,4,4,4,3,3,3,4,3,3,5,4,2,4,2,4,4,4,2,2,3,2,2,4,4,4,4,3,2,2,2,2,3,4,7,6,5,6,6,6,5,6,6,5,6,5,7,6,3,7,7,6,2,1,6,2,2,2,2,3,3,2,1,1,1,2,4,3,2,1,3,4,4,4,3,3,3,4,3,5,4,5,4,4,4,5,4,3,3,3,4,3,4,2,2,4,4,1,1,2,3,2,5,5,4,5,5,2,5,1,4,1,5,4,3,3,3,4,3,4,1,2,3,4,2,4,3,2,5,4,4,3,5,5,5,4,4,5,4,2,3,2,3,3,5,5,2,2,5,5,3,4,5,2,3,3,5,5,4,2,5,5,4,4,1,5
Zurich,NA,NA,NA,NA,NA,NA,NA,4,NA,NA,NA,NA,NA,NA,NA,35.4,NA,35.4,NA,NA,NA,NA,09:54:32,1,1,NA,NA,NA,NA,NA,NA,NA,NA,NA,NA,NA,NA,NA,NA,NA,NA,NA,NA,NA,NA,NA,NA,NA,NA,NA,NA,NA,NA,NA,NA,NA,NA,NA,NA,NA,NA,NA,NA,NA,NA,NA,NA,NA,NA,NA,2,2,1,1,2,1,2,1,2,2,2,4,1,2,NA,NA,NA,NA,NA,NA,NA,NA,NA,NA,NA,NA,NA,NA,NA,NA,NA,NA,NA,NA,NA,NA,NA,NA,NA,NA,NA,NA,NA,NA,NA,NA,NA,NA,NA,NA,NA,NA,NA,NA,NA,NA,NA,NA,NA,NA,NA,NA,NA,NA,NA,NA,NA,NA,NA,NA,NA,NA,NA,NA,NA,NA,NA,NA,NA,5,3,4,4,3,3,5,NA,NA,NA,NA,NA,NA,NA,NA,NA,NA,NA,NA,NA,NA,NA,NA,NA,NA,NA,NA,NA,NA,NA,3,2,4,4,3,3,3,3,3,2,3,2,2,3,3,3,3,4,2,3,3,5,3,3,4,4,3,3,3,3,1,3,3,4,4,5,5,3,2,2,4,3,3,2,2,4,5,3,3,3,2,2,3,2,3,4,1
UCSB,NA,3,4,2,7,NA,NA,3,1,33,3,2,NA,2,2,35.55555556,35.55555556,35.55555556,34.0184021,-119.7252045,72,10.55555556,NA,5,1,2,1,NA,4,4,5,NA,3,3,3,5,2,3,2,4,1,NA,NA,2,2,3,1,NA,NA,NA,NA,NA,NA,NA,NA,NA,NA,1,5,5,5,5,1,5,1,5,5,1,5,5,1,1,1,5,5,5,5,1,5,5,1,1,5,1,1,1,1,1,1,1,1,1,1,1,1,1,1,1,1,1,1,1,1,1,5,5,5,5,5,5,5,5,3,5,3,5,5,5,5,5,5,5,5,3,5,3,5,5,5,3,3,3,3,3,3,5,3,3,3,3,4,4,4,4,4,4,4,4,4,1,1,1,1,1,1,1,4,4,4,2,4,4,4,4,4,4,4,2,4,2,4,2,5,8,1,8,7,7,7,5,5,5,5,5,5,5,5,5,5,5,5,5,5,5,5,5,5,5,5,5,5,5,5,5,5,5,5,5,5,5,5,5,5,5,5,5,5,5,5,5,5,5,5,5,5,5,5,5,5,5,5,5,5,5,5,5
Chile,NA,NA,NA,NA,NA,NA,NA,NA,NA,NA,NA,NA,NA,NA,NA,35.6,NA,35.6,33.42628098,-70.56655884,79,2,17:00:56,2,1,NA,NA,NA,NA,NA,NA,NA,NA,NA,NA,NA,NA,NA,NA,NA,NA,NA,NA,NA,NA,NA,NA,NA,NA,NA,NA,NA,NA,NA,NA,NA,NA,NA,NA,NA,NA,NA,NA,NA,NA,NA,NA,NA,NA,NA,NA,NA,NA,NA,NA,NA,NA,NA,NA,NA,NA,NA,NA,NA,NA,NA,NA,NA,NA,NA,NA,NA,NA,NA,NA,NA,NA,NA,NA,NA,NA,NA,NA,NA,NA,NA,NA,NA,NA,NA,NA,NA,NA,NA,NA,NA,NA,NA,NA,NA,NA,NA,NA,NA,NA,NA,NA,NA,NA,NA,NA,NA,NA,NA,NA,NA,NA,NA,NA,NA,NA,NA,NA,NA,NA,NA,NA,NA,NA,NA,NA,NA,NA,NA,NA,NA,NA,NA,NA,NA,NA,NA,NA,NA,NA,NA,NA,NA,NA,NA,NA,NA,NA,NA,NA,NA,NA,NA,NA,NA,NA,NA,NA,NA,NA,NA,NA,NA,NA,NA,NA,NA,NA,NA,NA,NA,NA,NA,NA,NA,NA,NA,NA,NA,NA,NA,NA,NA,NA,NA,NA,NA,NA,NA,NA,NA,NA,NA,NA,NA,NA,NA,NA,NA,NA,NA,NA,NA,NA,NA,NA,NA,NA,NA,NA,NA
UCSB,NA,NA,NA,NA,NA,NA,NA,4,NA,4,0,NA,NA,NA,NA,35.77777778,NA,35.77777778,NA,NA,82,8.333333333,01:45:00,5,1,2,1,NA,4,2,5,NA,3,2,8,8,1,NA,2,8,2,1,5,8,1,NA,2,NA,NA,NA,NA,NA,NA,NA,NA,NA,NA,2,2,2,4,1,2,2,2,2,2,3,2,4,3,3,4,2,4,3,2,4,4,3,4,4,3,4,NA,NA,NA,NA,NA,NA,NA,NA,NA,NA,NA,NA,NA,NA,NA,NA,NA,NA,NA,NA,4,4,3,3,5,5,3,4,3,2,5,2,5,2,6,3,5,1,6,5,6,5,6,4,5,5,5,5,5,5,3,5,5,5,5,4,5,3,5,5,3,5,5,5,5,NA,NA,NA,NA,NA,NA,NA,3,4,1,4,3,4,5,4,4,2,4,2,4,4,4,4,5,6,3,2,2,4,5,1,2,4,5,5,4,5,4,4,3,2,4,1,2,4,1,4,2,4,2,4,4,5,4,3,5,2,5,3,3,1,4,2,2,4,3,2,2,2,4,4,4,3,2,1,4,4,2,2,2,2,4,2,2,4,2,4
Kassel,NA,NA,NA,NA,NA,NA,NA,5,NA,0,0,NA,NA,NA,NA,35.81,NA,35.81,NA,NA,NA,NA,11:28:13,1,1,2,1,NA,4,1,5,NA,5,1,8,5,1,NA,2,8,3,1,4,4,1,NA,1,NA,NA,NA,NA,NA,NA,NA,NA,NA,NA,4,2,3,4,2,2,2,3,3,4,4,3,5,3,3,3,2,2,1,2,2,3,2,3,5,2,4,5,5,4,5,5,4,2,3,4,4,4,4,3,3,2,4,4,2,2,4,5,3,4,2,4,3,1,5,5,4,3,2,4,2,2,3,3,2,4,3,4,4,6,4,5,5,3,3,3,6,6,4,7,7,3,3,5,4,5,5,3,2,2,5,4,3,5,5,4,3,2,4,1,2,1,2,1,2,1,1,1,2,1,1,3,2,4,2,4,5,3,4,2,3,4,1,4,2,4,2,4,1,2,5,4,4,1,1,4,4,1,4,4,2,3,4,4,4,3,4,3,3,3,2,2,3,2,3,4,4,4,2,4,2,2,1,5,2,2,1,4,4,2,2,4,4,3,3,4,3,2,4
VCU,NA,NA,NA,NA,NA,NA,NA,3,NA,0,0,NA,NA,NA,NA,35.9,NA,35.9,NA,NA,91,14.44444444,11:04:59,5,1,2,1,NA,4,4,5,NA,3,3,3,3,2,2,2,1,3,3,1,1,1,NA,1,NA,NA,NA,NA,NA,NA,NA,NA,NA,NA,3,2,5,2,4,4,3,3,2,5,4,5,3,3,3,3,4,4,3,2,3,3,2,2,2,2,2,5,5,2,5,4,4,3,4,5,5,5,4,4,5,3,4,1,4,3,5,4,1,2,2,1,5,1,1,2,1,7,1,2,2,1,5,1,1,1,1,1,1,1,1,1,1,1,1,1,1,1,1,2,4,1,3,4,4,4,4,4,4,3,4,4,3,6,6,6,5,6,6,5,5,1,1,4,3,4,5,4,4,5,1,2,1,1,1,2,5,7,5,5,5,5,2,5,4,4,4,5,4,4,2,2,1,1,3,2,2,2,1,1,2,5,4,5,4,5,5,5,5,4,5,5,1,1,1,2,3,1,4,1,2,4,4,1,1,1,2,5,4,5,5,2,1,4,4,4,3,2,2
VCU,NA,NA,NA,NA,NA,NA,NA,4,NA,NA,NA,NA,NA,NA,NA,35.94444444,NA,35.94444444,NA,NA,92,10,11:05:02,5,1,NA,NA,NA,NA,NA,NA,NA,NA,NA,NA,NA,NA,NA,NA,NA,NA,NA,NA,NA,NA,NA,NA,NA,NA,NA,NA,NA,NA,NA,NA,NA,NA,NA,NA,NA,NA,NA,NA,NA,NA,NA,NA,NA,NA,NA,2,2,4,1,1,1,2,2,1,2,2,5,3,3,2,4,2,4,2,3,3,2,4,2,3,3,4,2,2,2,1,2,1,2,NA,NA,NA,NA,NA,NA,NA,NA,NA,NA,NA,NA,NA,NA,NA,NA,NA,NA,NA,NA,NA,NA,NA,NA,NA,NA,NA,NA,NA,NA,NA,NA,NA,NA,NA,NA,NA,NA,NA,NA,NA,NA,NA,NA,NA,7,4,3,4,2,2,2,NA,NA,NA,NA,NA,NA,NA,NA,NA,NA,NA,NA,NA,NA,NA,NA,NA,NA,NA,NA,NA,NA,NA,NA,NA,NA,NA,NA,NA,NA,NA,NA,NA,NA,NA,NA,NA,NA,NA,NA,NA,NA,NA,NA,NA,NA,NA,NA,NA,NA,NA,NA,NA,NA,NA,NA,NA,NA,NA,NA,NA,NA,NA,NA,NA,NA,NA,NA,NA,NA,NA,NA,NA,NA,NA,NA,NA,NA,NA,NA
Oslo,NA,NA,NA,NA,NA,NA,NA,3,NA,0,0,NA,NA,NA,NA,36,NA,36,NA,NA,NA,NA,10:26:57,4,1,1,1,NA,4,4,4,2,8,2,8,6,1,NA,2,6,3,8,3,1,1,NA,1,NA,NA,NA,NA,NA,NA,NA,NA,NA,NA,4,4,4,4,3,4,4,3,3,3,4,4,4,2,2,3,2,3,2,2,3,3,2,2,5,2,2,1,1,1,3,1,1,1,1,4,2,2,2,2,2,2,1,1,2,2,2,2,2,1,2,6,3,1,2,2,1,2,2,2,2,1,1,2,1,2,2,2,2,2,1,2,2,2,1,2,1,2,2,3,5,3,2,5,5,4,5,5,4,4,4,4,6,6,6,6,6,5,5,1,1,1,2,1,1,1,1,1,1,1,5,3,2,2,4,5,7,4,3,3,3,5,2,2,2,5,5,4,4,3,4,1,1,1,2,2,5,1,3,3,4,3,3,2,3,4,4,5,5,4,5,5,1,1,1,2,4,4,4,2,2,1,2,3,3,4,2,3,3,4,4,4,2,4,4,4,3,3,4
Poland,NA,NA,NA,NA,NA,NA,NA,NA,NA,NA,NA,NA,NA,NA,NA,36,NA,36,NA,NA,75,7,12:09:08,9,1,NA,NA,NA,NA,NA,NA,NA,NA,NA,NA,NA,NA,NA,NA,NA,NA,NA,NA,NA,NA,NA,NA,NA,NA,NA,NA,NA,NA,NA,NA,NA,NA,NA,NA,NA,NA,NA,NA,NA,NA,NA,NA,NA,NA,NA,NA,NA,NA,NA,NA,NA,NA,NA,NA,NA,NA,NA,NA,NA,NA,NA,NA,NA,NA,NA,NA,NA,NA,NA,NA,NA,NA,NA,NA,NA,NA,NA,NA,NA,NA,NA,NA,NA,NA,NA,NA,NA,NA,NA,NA,NA,NA,NA,NA,NA,NA,NA,NA,NA,NA,NA,NA,NA,NA,NA,NA,NA,NA,NA,NA,NA,NA,NA,NA,NA,NA,NA,NA,NA,NA,NA,NA,NA,NA,NA,NA,NA,NA,NA,NA,NA,NA,NA,NA,NA,NA,NA,NA,NA,NA,NA,NA,NA,NA,NA,NA,NA,NA,NA,NA,NA,NA,NA,NA,NA,NA,NA,NA,NA,NA,NA,NA,NA,NA,NA,NA,NA,NA,NA,NA,NA,NA,NA,NA,NA,NA,NA,NA,NA,NA,NA,NA,NA,NA,NA,NA,NA,NA,NA,NA,NA,NA,NA,NA,NA,NA,NA,NA,NA,NA,NA,NA,NA,NA,NA,NA,NA,NA,NA,NA,NA
Kassel,NA,NA,NA,NA,NA,NA,NA,1,NA,NA,NA,NA,NA,NA,NA,36.1,NA,36.1,NA,NA,NA,NA,09:51:03,1,1,2,1,NA,4,1,1,NA,1,NA,1,1,1,NA,1,NA,1,NA,NA,1,1,NA,1,NA,NA,NA,NA,NA,NA,NA,NA,NA,NA,1,5,5,5,5,1,5,1,5,5,1,5,5,1,1,1,5,5,5,5,1,5,5,1,1,5,1,NA,NA,NA,NA,NA,NA,NA,NA,NA,NA,NA,NA,NA,NA,NA,NA,NA,NA,NA,NA,NA,NA,NA,NA,NA,NA,NA,NA,NA,NA,NA,NA,NA,NA,NA,NA,NA,NA,NA,NA,NA,NA,NA,NA,NA,NA,NA,NA,NA,NA,NA,NA,NA,NA,NA,NA,NA,NA,NA,NA,NA,NA,NA,NA,NA,7,1,1,1,1,1,1,1,1,1,5,1,1,1,1,1,1,1,5,1,5,1,5,1,1,1,1,1,1,1,NA,NA,NA,NA,NA,NA,NA,NA,NA,NA,NA,NA,NA,NA,NA,NA,NA,NA,NA,NA,NA,NA,NA,NA,NA,NA,NA,NA,NA,NA,NA,NA,NA,NA,NA,NA,NA,NA,NA,NA,NA,NA,NA,NA,NA,NA,NA,NA,NA,NA,NA,NA,NA,NA,NA,NA,NA
SMU,NA,NA,NA,NA,NA,NA,NA,1,NA,1.5,0,NA,NA,NA,NA,36.1,NA,36.1,NA,NA,70,27,10:56:49,5,1,2,1,NA,4,4,5,NA,1,NA,6,3,1,NA,2,4,1,NA,NA,1,1,NA,1,NA,NA,NA,NA,NA,NA,NA,NA,NA,NA,4,1,3,3,2,3,2,3,2,2,4,2,3,5,5,5,4,5,4,3,5,5,4,5,5,3,5,4,4,2,4,2,3,4,4,4,4,3,4,4,4,2,2,2,2,3,4,7,7,7,7,7,7,6,7,6,6,7,7,6,7,7,5,7,6,2,2,4,2,4,2,2,3,3,2,2,2,2,2,6,4,1,3,5,5,5,4,5,5,5,5,5,7,6,6,6,7,6,6,2,2,4,2,1,5,2,2,3,2,1,1,1,2,3,4,5,4,7,7,7,7,1,1,5,5,5,1,3,3,3,3,5,4,1,4,5,5,4,2,4,2,4,4,4,4,4,4,4,3,1,3,3,2,2,4,2,2,2,5,3,1,5,4,1,3,3,3,2,4,4,4,2,2,2,4,2,2,2,4
Portugal,NA,NA,NA,NA,NA,NA,NA,NA,NA,NA,NA,NA,NA,NA,NA,36.2,NA,36.2,NA,NA,NA,NA,10:48:31,8,1,NA,NA,NA,NA,NA,NA,NA,NA,NA,NA,NA,NA,NA,NA,NA,NA,NA,NA,NA,NA,NA,NA,NA,NA,NA,NA,NA,NA,NA,NA,NA,NA,NA,NA,NA,NA,NA,NA,NA,NA,NA,NA,NA,NA,NA,NA,NA,NA,NA,NA,NA,NA,NA,NA,NA,NA,NA,NA,NA,NA,NA,NA,NA,NA,NA,NA,NA,NA,NA,NA,NA,NA,NA,NA,NA,NA,NA,NA,NA,NA,NA,NA,NA,NA,NA,NA,NA,NA,NA,NA,NA,NA,NA,NA,NA,NA,NA,NA,NA,NA,NA,NA,NA,NA,NA,NA,NA,NA,NA,NA,NA,NA,NA,NA,NA,NA,NA,NA,NA,NA,NA,NA,NA,NA,NA,NA,NA,NA,NA,NA,NA,NA,NA,NA,NA,NA,NA,NA,NA,NA,NA,NA,NA,NA,NA,NA,NA,NA,NA,NA,NA,NA,NA,NA,NA,NA,NA,NA,NA,NA,NA,NA,NA,NA,NA,NA,NA,NA,NA,NA,NA,NA,NA,NA,NA,NA,NA,NA,NA,NA,NA,NA,NA,NA,NA,NA,NA,NA,NA,NA,NA,NA,NA,NA,NA,NA,NA,NA,NA,NA,NA,NA,NA,NA,NA,NA,NA,NA,NA,NA,NA
Kassel,NA,NA,NA,NA,NA,NA,NA,NA,NA,NA,NA,NA,NA,NA,NA,36.3,NA,36.3,NA,NA,NA,NA,10:41:13,1,1,NA,NA,NA,NA,NA,NA,NA,NA,NA,NA,NA,NA,NA,NA,NA,NA,NA,NA,NA,NA,NA,NA,NA,NA,NA,NA,NA,NA,NA,NA,NA,NA,NA,NA,NA,NA,NA,NA,NA,NA,NA,NA,NA,NA,NA,NA,NA,NA,NA,NA,NA,NA,NA,NA,NA,NA,NA,NA,NA,2,2,2,2,1,1,1,2,3,3,3,3,3,3,1,1,2,1,1,3,NA,NA,NA,NA,NA,NA,NA,NA,NA,NA,NA,NA,NA,NA,NA,NA,NA,NA,NA,NA,NA,NA,NA,NA,NA,NA,NA,NA,NA,NA,NA,NA,NA,NA,NA,NA,4,4,4,4,5,2,2,4,4,NA,NA,NA,NA,NA,NA,NA,NA,NA,NA,NA,NA,NA,NA,NA,NA,NA,NA,NA,NA,NA,NA,NA,4,5,7,5,5,4,4,NA,NA,NA,NA,NA,NA,NA,NA,NA,NA,NA,NA,NA,NA,NA,NA,NA,NA,NA,NA,NA,NA,NA,NA,NA,NA,NA,NA,NA,NA,NA,NA,NA,NA,NA,NA,NA,NA,NA,NA,NA,NA,NA,NA,NA,NA,NA,NA,NA,NA,NA,NA,NA,NA,NA,NA,NA
Bamberg,NA,NA,NA,NA,NA,NA,NA,3,NA,NA,NA,NA,NA,NA,NA,36.3,NA,36.3,NA,NA,NA,NA,10:10:20,1,1,NA,NA,NA,NA,NA,NA,NA,NA,NA,NA,NA,NA,NA,NA,NA,NA,NA,NA,NA,NA,NA,NA,NA,NA,NA,NA,NA,NA,NA,NA,NA,NA,NA,NA,NA,NA,NA,NA,NA,NA,NA,NA,NA,NA,NA,4,3,3,4,4,4,3,4,4,4,4,4,3,4,NA,NA,NA,NA,NA,NA,NA,NA,NA,NA,NA,NA,NA,NA,NA,NA,NA,NA,NA,NA,5,5,5,5,6,5,5,5,5,6,5,6,6,6,6,6,5,3,4,3,4,3,3,4,2,5,5,3,4,4,4,2,5,4,5,5,NA,NA,NA,NA,NA,NA,NA,NA,NA,4,4,4,2,3,2,3,NA,NA,NA,NA,NA,NA,NA,NA,NA,NA,NA,NA,NA,NA,NA,NA,4,6,7,5,4,1,1,4,4,2,5,4,2,1,2,4,1,2,2,1,3,3,1,4,2,3,4,4,3,3,5,4,4,2,4,4,3,1,4,2,1,5,4,2,1,2,3,2,5,4,3,3,2,4,4,4,3,3,4,4,3,3,1,4
Zurich,NA,NA,NA,NA,NA,NA,NA,NA,NA,NA,NA,NA,NA,NA,NA,36.3,NA,36.3,NA,NA,NA,NA,10:39:13,1,1,NA,NA,NA,NA,NA,NA,NA,NA,NA,NA,NA,NA,NA,NA,NA,NA,NA,NA,NA,NA,NA,NA,NA,NA,NA,NA,NA,NA,NA,NA,NA,NA,NA,NA,NA,NA,NA,NA,NA,NA,NA,NA,NA,NA,NA,NA,NA,NA,NA,NA,NA,NA,NA,NA,NA,NA,NA,NA,NA,NA,NA,NA,NA,NA,NA,NA,NA,NA,NA,NA,NA,NA,NA,NA,NA,NA,NA,NA,NA,NA,NA,NA,NA,NA,NA,NA,NA,NA,NA,NA,NA,NA,NA,NA,NA,NA,NA,NA,NA,NA,NA,NA,NA,NA,NA,NA,NA,NA,NA,NA,NA,NA,NA,NA,NA,NA,NA,NA,NA,NA,NA,NA,NA,NA,2,3,4,3,2,2,3,NA,NA,NA,NA,NA,NA,NA,NA,NA,NA,NA,NA,NA,NA,NA,NA,NA,NA,NA,NA,NA,NA,NA,NA,NA,NA,NA,NA,NA,NA,NA,NA,NA,NA,NA,NA,NA,NA,NA,NA,NA,NA,NA,NA,NA,NA,NA,NA,NA,NA,NA,NA,NA,NA,NA,NA,NA,NA,NA,NA,NA,NA,NA,NA,NA,NA,NA,NA,NA,NA,NA,NA,NA,NA,NA,NA,NA,NA,NA,NA
Bamberg,NA,NA,NA,NA,NA,NA,NA,NA,NA,12,0,NA,NA,NA,NA,36.3,NA,36.3,NA,NA,NA,NA,16:19:46,1,1,1,1,NA,4,2,4,4,3,3,5,4,1,NA,2,4,1,NA,NA,2,1,NA,1,NA,NA,NA,NA,NA,NA,NA,NA,NA,NA,NA,NA,NA,NA,NA,NA,NA,NA,NA,NA,NA,NA,NA,NA,NA,NA,NA,NA,NA,NA,NA,NA,NA,NA,NA,NA,NA,NA,NA,NA,NA,NA,NA,NA,NA,NA,NA,NA,NA,NA,NA,NA,NA,NA,NA,NA,NA,NA,NA,NA,NA,NA,NA,NA,NA,NA,NA,NA,NA,NA,NA,NA,NA,NA,NA,NA,NA,NA,NA,NA,NA,NA,NA,NA,NA,NA,NA,NA,NA,NA,NA,NA,NA,5,5,5,5,5,4,4,5,4,4,4,4,3,3,3,5,2,2,1,2,2,2,3,2,2,2,3,2,2,2,2,2,NA,NA,NA,NA,NA,NA,NA,2,4,2,4,2,4,2,2,4,4,4,1,1,5,5,4,4,4,2,4,3,4,3,5,4,4,4,2,4,4,1,1,4,2,3,4,2,2,2,2,3,3,4,2,1,4,2,4,4,4,4,4,3,4,4,2,3
SMU,NA,NA,NA,NA,NA,NA,NA,NA,NA,5,0,NA,NA,NA,NA,36.3,NA,36.3,NA,NA,79,26,11:03:34,5,1,2,1,NA,4,4,5,NA,3,4,4,4,1,NA,2,8,3,1,3,1,1,NA,1,NA,NA,NA,NA,NA,NA,NA,NA,NA,NA,3,3,3,4,3,4,3,2,2,2,3,2,3,NA,NA,NA,NA,NA,NA,NA,NA,NA,NA,NA,NA,NA,NA,2,4,3,4,4,4,4,4,3,4,4,4,4,4,3,2,3,3,4,4,4,4,4,4,4,4,4,5,4,3,4,3,4,5,4,3,4,2,4,4,3,2,3,3,3,4,2,2,2,4,2,3,2,3,3,2,4,4,4,4,4,4,4,4,4,6,5,4,5,5,4,5,4,4,3,4,3,3,4,4,3,4,2,3,3,2,3,2,3,4,5,4,4,4,4,2,4,4,3,2,3,3,4,4,4,4,2,4,4,3,4,3,4,3,3,4,4,3,4,3,4,3,2,3,3,2,2,2,2,2,3,2,3,2,4,3,3,2,3,3,3,4,4,4,4,3,2,4,4,3,2,4
Portugal,NA,NA,NA,NA,NA,NA,NA,3,NA,0,1,NA,NA,NA,NA,36.4,NA,36.4,NA,NA,NA,NA,10:27:10,8,1,1,4,4,1,1,5,1,4,3,7,4,1,NA,1,NA,3,1,8,3,1,NA,2,NA,NA,NA,NA,NA,NA,NA,NA,NA,NA,3,3,3,2,3,4,1,3,2,3,4,3,2,3,3,4,3,3,2,2,4,3,4,3,4,3,4,4,4,4,4,3,3,3,4,4,4,4,4,4,3,3,3,3,4,1,3,3,3,3,6,3,7,3,3,5,3,5,1,1,2,1,3,6,3,2,2,4,5,3,3,6,2,1,1,4,6,2,6,7,7,1,3,4,5,3,5,4,5,5,5,3,4,5,5,5,4,4,4,5,2,2,1,2,2,5,2,5,2,5,3,2,3,5,3,NA,NA,NA,NA,NA,NA,NA,1,4,3,4,3,4,3,4,4,4,2,4,4,3,2,4,4,4,4,4,4,4,4,2,2,1,2,4,4,4,3,4,4,3,3,3,3,4,3,2,2,4,2,3,2,4,4,4,4,4,2,4,3,3,3,2,2
UCSB,NA,2,1,2,7,1.8796,113.6363636,3,1,7,0,2,NA,1,2,36.44444444,36.44444444,36.44444444,34.4329071,-119.8370972,92,13.88888889,NA,5,1,2,1,NA,4,2,5,NA,1,NA,1,3,2,1,2,4,1,NA,NA,1,1,NA,1,NA,NA,NA,NA,NA,NA,NA,NA,NA,NA,5,2,5,3,3,5,4,4,1,4,4,3,1,3,3,3,2,3,2,2,3,3,2,2,3,2,3,2,3,2,4,4,1,1,2,2,4,2,4,2,1,1,1,1,1,1,4,5,5,4,5,5,7,4,4,4,4,5,4,4,3,6,3,6,4,4,3,5,5,5,4,5,5,5,4,4,4,2,5,5,6,4,4,2,3,4,2,2,4,3,4,4,5,6,5,3,5,3,5,2,4,2,3,4,2,2,4,2,2,2,2,2,2,3,1,4,5,6,4,4,4,3,4,5,4,4,1,2,4,2,2,4,2,2,4,3,3,4,2,4,2,4,4,3,4,1,4,3,2,4,3,2,4,5,3,4,4,4,4,2,1,4,3,2,2,1,4,4,4,4,3,2,4,2,2,2,2,3,3
UCSB,NA,2,1,1,7,1.6256,53.63636364,4,1,1,1,2,NA,1,2,36.21111111,36.77777778,36.49444444,34.41940308,-119.7071991,51,6.666666667,NA,5,1,2,1,NA,4,4,4,1,7,1,5,5,1,NA,2,8,1,NA,NA,1,1,NA,1,NA,NA,NA,NA,NA,NA,NA,NA,NA,NA,3,3,3,2,2,4,1,2,3,2,3,3,5,4,5,4,3,3,3,3,4,3,3,4,3,2,4,5,5,5,5,5,5,5,5,5,5,5,5,5,5,1,4,4,5,5,5,5,4,6,4,4,7,4,4,2,6,4,4,4,5,4,5,5,6,3,3,3,4,4,3,4,3,2,3,3,3,2,2,5,4,4,4,5,4,4,4,4,3,3,4,5,7,7,7,7,7,7,7,5,5,5,2,5,5,5,4,3,4,5,2,5,1,3,1,5,5,4,2,3,3,4,1,5,4,4,1,1,5,5,5,5,5,1,5,5,5,3,5,5,3,5,5,3,5,5,5,3,3,3,3,3,4,4,3,1,4,4,3,4,1,3,5,3,4,4,4,4,4,4,4,1,1,5,1,1,1,1,3
VCU,NA,NA,NA,NA,NA,NA,NA,4,NA,NA,0,NA,NA,NA,NA,36.5,NA,36.5,NA,NA,68,8.888888889,23:40:05,5,1,2,1,NA,4,4,5,NA,5,4,5,5,1,NA,2,5,3,1,5,3,1,NA,1,NA,NA,NA,NA,NA,NA,NA,NA,NA,NA,4,4,5,5,3,4,5,4,4,3,5,2,4,3,3,4,3,2,3,3,3,4,2,4,2,3,4,3,3,1,3,1,1,1,1,1,2,2,2,2,2,1,1,1,1,1,1,1,1,1,1,1,4,1,1,4,4,3,3,2,1,3,3,1,3,2,6,1,4,4,1,3,4,7,7,5,5,5,4,7,6,4,5,5,5,5,5,5,5,5,5,5,3,4,4,3,3,4,3,2,2,1,2,3,1,2,4,4,1,3,3,2,3,4,4,2,5,4,2,1,1,2,3,4,4,3,1,3,4,4,3,5,5,3,3,3,3,4,3,3,3,3,4,4,4,3,3,3,3,4,3,3,3,3,3,3,4,4,2,3,2,3,3,3,3,2,3,4,4,2,3,2,4,5,3,3,4,3,1
Poland,NA,NA,NA,NA,NA,NA,NA,NA,NA,NA,NA,NA,NA,NA,NA,36.5,NA,36.5,NA,NA,68,-2,23:10:34,9,1,2,1,NA,4,4,4,1,8,2,4,4,2,1,2,8,6,8,2,2,2,1,1,NA,NA,NA,NA,NA,NA,NA,NA,NA,NA,NA,NA,NA,NA,NA,NA,NA,NA,NA,NA,NA,NA,NA,NA,NA,NA,NA,NA,NA,NA,NA,NA,NA,NA,NA,NA,NA,NA,NA,NA,NA,NA,NA,NA,NA,NA,NA,NA,NA,NA,NA,NA,NA,NA,NA,NA,NA,NA,NA,NA,NA,NA,NA,NA,NA,NA,NA,NA,NA,NA,NA,NA,NA,NA,NA,NA,NA,NA,NA,NA,NA,NA,NA,NA,NA,NA,NA,NA,NA,NA,NA,NA,NA,4,4,4,4,4,4,4,4,4,NA,NA,NA,NA,NA,NA,NA,NA,NA,NA,NA,NA,NA,NA,NA,NA,NA,NA,NA,NA,NA,NA,NA,5,5,7,5,4,5,5,2,3,2,5,4,4,2,3,5,3,4,2,3,3,4,2,4,4,3,4,4,4,3,4,2,4,4,3,4,4,3,3,2,2,4,4,4,2,3,4,4,4,4,3,2,4,4,4,4,4,3,3,3,3,3,3,3
Zurich,NA,NA,NA,NA,NA,NA,NA,NA,NA,NA,NA,NA,NA,NA,NA,36.6,NA,36.6,NA,NA,NA,NA,11:04:05,1,1,NA,NA,NA,NA,NA,NA,NA,NA,NA,NA,NA,NA,NA,NA,NA,NA,NA,NA,NA,NA,NA,NA,NA,NA,NA,NA,NA,NA,NA,NA,NA,NA,NA,NA,NA,NA,NA,NA,NA,NA,NA,NA,NA,NA,NA,NA,NA,NA,NA,NA,NA,NA,NA,NA,NA,NA,NA,NA,NA,NA,NA,NA,NA,NA,NA,NA,NA,NA,NA,NA,NA,NA,NA,NA,NA,NA,NA,NA,NA,NA,NA,NA,NA,NA,NA,NA,NA,NA,NA,NA,NA,NA,NA,NA,NA,NA,NA,NA,NA,NA,NA,NA,NA,NA,NA,NA,NA,NA,NA,NA,NA,NA,NA,NA,NA,NA,NA,NA,NA,NA,NA,NA,NA,NA,NA,NA,NA,NA,NA,NA,NA,NA,NA,NA,NA,NA,NA,NA,NA,NA,NA,NA,NA,NA,NA,NA,NA,NA,NA,NA,NA,NA,NA,NA,NA,NA,NA,NA,NA,NA,NA,NA,NA,NA,NA,NA,NA,NA,NA,NA,NA,NA,NA,NA,NA,NA,NA,NA,NA,NA,NA,NA,NA,NA,NA,NA,NA,NA,NA,NA,NA,NA,NA,NA,NA,NA,NA,NA,NA,NA,NA,NA,NA,NA,NA,NA,NA,NA,NA,NA,NA
UCSB,NA,2,1,1,7,1.7018,75,2,1,5,0,2,NA,1,2,36.11111111,37.11111111,36.61111111,34.4329071,-119.8370972,86,12.22222222,10:59:00,5,1,1,2,2,4,2,4,1,4,3,4,2,1,NA,2,2,3,1,2,2,1,NA,1,NA,NA,NA,NA,NA,NA,NA,NA,NA,NA,3,2,2,3,2,3,1,2,2,3,4,3,2,3,3,4,3,3,3,2,3,3,3,4,4,3,4,4,4,1,4,2,2,3,2,4,3,4,3,4,2,2,2,2,2,4,2,6,5,6,5,6,4,4,5,4,6,4,4,4,3,3,5,4,4,4,2,5,3,4,3,3,3,2,2,2,3,2,3,3,4,2,5,3,4,4,4,4,4,4,4,4,7,4,4,3,5,5,5,4,4,3,3,4,4,4,3,3,4,4,1,3,2,3,2,5,6,5,3,5,5,5,2,3,4,4,3,2,4,5,5,5,4,3,3,4,2,4,4,4,3,3,4,4,3,4,4,4,2,3,4,3,2,4,3,1,1,2,3,4,3,2,2,4,3,4,3,4,4,4,4,4,3,4,3,3,2,3,4
Chile,NA,NA,NA,NA,NA,NA,NA,3,NA,0,0,NA,NA,NA,NA,36.7,NA,36.7,33.44430161,-70.72551727,55,12,15:45:03,2,1,1,1,NA,4,2,4,2,3,2,3,2,1,NA,2,3,4,1,1,1,1,NA,1,NA,NA,NA,NA,NA,NA,NA,NA,NA,NA,3,3,3,4,5,4,2,2,2,2,4,5,3,2,3,3,3,3,2,3,2,3,2,3,4,3,2,1,1,1,1,1,1,2,1,1,1,1,1,1,1,1,1,1,1,1,1,2,2,1,3,2,2,6,5,6,1,5,1,3,2,5,2,5,2,2,1,2,1,2,1,2,2,1,4,2,2,1,2,3,4,1,2,5,5,5,5,4,3,3,3,2,3,4,2,3,1,2,2,2,2,1,3,2,2,2,3,2,2,3,2,4,3,4,2,5,6,4,1,1,1,1,2,5,5,2,1,2,2,3,4,5,5,3,5,3,2,5,3,2,2,2,4,5,3,5,3,5,3,3,4,2,1,2,2,3,4,3,2,5,4,3,4,3,3,2,3,4,4,4,3,4,4,3,2,3,3,2,3
SMU,NA,NA,NA,NA,NA,NA,NA,3,NA,0,0,NA,NA,NA,NA,36.7,NA,36.7,NA,NA,70,27,10:52:08,5,1,2,1,NA,4,4,5,NA,8,8,8,8,1,NA,2,8,1,NA,NA,2,1,NA,1,NA,NA,NA,NA,NA,NA,NA,NA,NA,NA,NA,NA,NA,NA,NA,NA,NA,NA,NA,NA,NA,NA,NA,3,3,3,3,3,3,3,3,3,3,3,3,3,3,3,3,3,3,4,4,3,3,3,2,3,4,3,3,3,3,2,3,3,3,4,5,4,4,3,4,4,4,4,3,5,3,4,4,4,3,3,4,4,4,4,4,4,3,5,4,4,4,3,4,3,4,4,5,3,4,3,3,3,3,3,3,3,3,3,4,3,3,3,3,3,3,3,2,3,3,3,3,3,3,3,3,3,3,3,3,3,3,4,6,6,5,5,5,5,3,3,2,3,3,3,3,3,3,3,3,3,3,3,3,3,3,3,3,3,3,3,3,3,3,3,3,3,3,3,3,3,3,3,3,3,3,3,3,3,3,3,3,3,3,3,3,3,3,3,3,3,3,3,3,3,3
SMU,NA,NA,NA,NA,NA,NA,NA,4,NA,0,0,2,NA,NA,NA,36.7,36.8,36.75,NA,NA,70,26,11:02:40,5,1,2,1,NA,4,4,5,NA,3,2,4,3,2,1,2,5,1,NA,NA,1,1,NA,1,NA,NA,NA,NA,NA,NA,NA,NA,NA,NA,3,2,3,3,2,2,1,3,2,3,4,2,3,4,3,4,2,3,3,3,3,2,3,4,4,3,3,5,5,4,5,3,3,5,4,4,5,5,5,5,3,3,4,3,5,4,5,1,2,1,2,6,5,1,2,2,1,2,2,1,2,1,7,3,1,5,3,6,3,3,4,3,2,2,2,2,3,3,2,4,4,3,3,4,5,4,5,5,5,5,5,5,4,6,6,6,6,5,5,4,4,1,4,4,3,4,4,1,4,3,1,3,2,4,4,4,7,7,2,3,2,4,1,2,3,3,2,3,2,3,2,4,3,1,4,5,3,4,4,4,2,3,4,5,4,3,3,4,4,4,4,3,1,1,2,1,2,3,4,3,3,4,3,4,5,3,2,4,3,3,4,4,3,5,3,4,3,2,3
Serbia,NA,NA,NA,NA,NA,NA,NA,5,NA,0,0,NA,NA,NA,NA,36.8,NA,36.8,NA,NA,79,11,17:21:24,6,1,2,1,NA,4,4,4,1,2,2,5,5,1,NA,2,8,1,NA,NA,1,1,NA,1,NA,NA,NA,NA,NA,NA,NA,NA,NA,NA,1,2,3,5,5,5,5,1,5,5,1,1,5,3,2,1,4,2,2,3,3,1,1,2,5,1,2,1,2,2,1,1,1,2,1,2,2,1,2,1,2,1,1,1,1,1,1,1,4,1,4,4,4,4,4,4,1,1,4,4,4,1,1,1,1,7,6,4,4,7,4,4,5,7,4,4,6,3,2,NA,3,NA,4,3,3,3,3,3,3,3,3,3,2,1,1,1,1,1,1,3,3,3,3,3,3,3,3,3,3,3,3,3,3,3,3,1,2,1,1,1,1,1,3,3,4,4,1,1,1,4,4,3,3,3,3,3,3,3,3,3,3,3,3,3,3,3,3,3,3,3,3,3,3,3,3,3,3,3,3,3,3,3,3,3,3,3,3,3,3,3,3,3,3,3,3,3,3,3,3
Poland,NA,NA,NA,NA,NA,NA,NA,4,1,8,0,2,NA,1,2,36.7,36.9,36.8,NA,NA,67,2,10:28:41,9,1,1,1,NA,4,2,4,1,6,6,6,4,1,NA,2,6,6,8,8,1,1,NA,1,NA,NA,NA,NA,NA,NA,NA,NA,NA,NA,2,2,4,5,2,3,1,2,2,4,3,3,4,2,3,2,5,4,5,5,3,4,4,3,4,4,3,4,4,3,4,1,2,2,2,3,4,4,4,4,3,1,1,2,2,2,3,2,2,3,5,2,4,2,2,2,4,6,4,2,2,4,6,2,2,2,2,5,2,3,2,2,2,2,2,2,3,2,1,5,4,3,2,4,4,4,4,3,3,2,4,3,3,2,2,2,4,4,4,2,2,1,2,2,2,3,2,3,2,2,3,1,1,3,1,3,4,6,2,3,4,4,3,4,3,4,2,2,3,4,2,5,4,2,4,4,4,3,4,2,3,3,4,4,4,4,4,4,4,3,4,3,2,2,2,2,2,3,2,2,2,2,3,4,3,2,3,3,4,4,4,4,3,4,2,2,2,2,3
Poland,NA,NA,NA,NA,NA,NA,NA,NA,NA,0,14,NA,NA,NA,NA,36.8,NA,36.8,NA,NA,91,1,18:02:58,9,1,2,1,NA,4,2,5,1,6,5,5,5,1,NA,1,NA,2,1,1,3,1,NA,2,NA,NA,NA,NA,NA,NA,NA,NA,NA,NA,5,5,5,5,5,4,5,5,4,5,5,5,5,NA,NA,NA,NA,NA,NA,NA,NA,NA,NA,NA,NA,NA,NA,NA,NA,NA,NA,NA,NA,NA,NA,NA,NA,NA,NA,NA,NA,NA,NA,NA,NA,NA,NA,NA,NA,NA,NA,NA,NA,NA,NA,NA,NA,NA,NA,NA,NA,NA,NA,NA,NA,NA,NA,NA,NA,NA,NA,NA,NA,NA,NA,NA,NA,NA,NA,NA,NA,NA,NA,NA,NA,NA,NA,NA,NA,NA,NA,NA,NA,NA,NA,NA,NA,NA,NA,NA,NA,NA,NA,NA,NA,NA,NA,NA,NA,NA,NA,NA,NA,NA,NA,NA,NA,NA,NA,NA,NA,NA,NA,NA,NA,NA,NA,NA,NA,NA,NA,NA,NA,NA,NA,NA,NA,NA,NA,NA,NA,NA,NA,NA,NA,NA,NA,NA,NA,NA,NA,NA,NA,NA,NA,NA,NA,NA,NA,NA,NA,NA,NA,NA,NA,NA,NA,NA,NA,NA,NA,NA,NA,NA,NA,NA,NA,NA,NA
Bamberg,NA,NA,NA,NA,NA,NA,NA,4,NA,1.5,0,NA,NA,NA,NA,36.8,NA,36.8,NA,NA,71,2,10:31:40,1,1,2,1,NA,4,4,4,1,2,2,7,6,NA,NA,NA,NA,NA,NA,NA,NA,NA,NA,NA,NA,NA,NA,NA,NA,NA,NA,NA,NA,NA,3,2,4,4,2,4,4,2,2,4,4,4,4,3,3,3,2,2,2,2,3,2,2,3,3,2,3,4,4,2,4,3,2,3,4,4,4,4,4,4,3,1,4,1,2,1,4,NA,NA,NA,NA,NA,NA,NA,NA,NA,NA,NA,NA,NA,NA,NA,NA,NA,NA,NA,NA,NA,NA,NA,NA,NA,NA,NA,NA,NA,NA,NA,NA,NA,NA,NA,NA,3,4,4,5,5,3,2,5,5,5,5,5,5,5,5,5,NA,NA,NA,NA,NA,NA,NA,NA,NA,NA,NA,NA,NA,NA,NA,NA,5,7,5,4,3,3,6,1,2,2,5,4,4,2,1,4,3,2,1,1,3,3,1,4,2,3,4,2,2,5,5,5,5,2,2,2,2,1,2,1,3,2,2,1,2,2,1,2,4,1,3,2,4,4,5,3,4,2,2,3,3,4,3,4
UCSB,NA,1,1,1,2,1.905,79.54545455,5,1,0,0,2,NA,1,2,36.5,37.11111111,36.80555556,34.4329071,-119.8370972,76,10,11:59:00,5,1,2,1,NA,4,4,5,NA,8,4,8,8,1,NA,2,5,3,1,5,5,1,NA,1,NA,NA,NA,NA,NA,NA,NA,NA,NA,NA,4,1,5,1,3,5,2,2,5,1,4,4,3,2,1,3,1,2,2,2,2,2,2,1,4,1,2,2,4,3,4,2,2,2,3,2,4,2,4,3,2,1,2,2,3,1,3,5,7,7,7,7,6,5,6,7,2,7,6,7,6,2,1,4,1,7,1,2,2,2,2,2,1,1,1,2,2,2,2,2,3,1,2,5,4,4,4,5,4,3,1,1,3,2,1,1,2,2,3,4,2,1,3,1,1,3,4,2,2,1,1,1,1,2,1,4,5,2,2,4,3,1,5,4,5,4,2,1,2,5,1,5,2,4,5,5,1,5,1,2,5,5,3,5,5,5,5,5,3,3,4,3,1,2,1,2,3,5,3,4,2,5,3,5,2,4,5,3,2,4,5,3,2,4,3,2,2,5,1
UCSB,NA,2,1,1,4,1.6764,59.09090909,3,1,2,0,1,0,1,2,36.77777778,36.83333333,36.80555556,34.50210571,-120.1287003,87,8.333333333,NA,5,1,2,1,NA,4,4,2,1,8,2,8,8,1,NA,2,8,3,1,8,8,2,8,2,Skii Team,0,0,0,0,5,0,0,0,0,2,2,2,4,2,2,2,2,2,2,4,2,3,3,3,4,3,4,4,2,4,2,4,2,4,4,3,2,4,2,4,3,2,2,5,4,4,4,4,4,3,2,2,2,4,2,4,7,5,5,5,5,4,6,7,3,4,2,3,4,2,5,2,6,4,6,3,6,3,5,5,3,3,6,3,3,6,3,7,2,6,2,3,4,4,4,4,4,4,4,4,4,6,4,4,3,5,6,5,3,4,2,4,3,2,4,4,4,2,4,2,2,2,2,2,5,7,6,5,4,5,7,2,3,3,5,5,4,5,3,3,3,2,2,3,4,4,2,4,4,4,3,4,3,4,4,4,4,3,4,2,4,2,3,2,2,4,2,3,1,2,3,3,4,2,2,3,3,4,2,3,4,2,4,2,4,4,2,4
UCSB,NA,2,3,1,7,1.7272,62.27272727,5,1,0,0,2,NA,1,2,37,36.88888889,36.94444444,34.0184021,-119.7252045,71,7.777777778,NA,5,1,2,1,NA,4,4,4,1,4,1,6,6,1,NA,2,8,3,1,4,1,2,8,2,Mentorship,Kickboxing,Roommates,Best friends,Family,7,7,2,2,4,5,4,5,4,3,3,4,2,3,4,4,5,2,1,3,2,2,2,2,2,2,2,2,2,3,2,3,1,4,2,4,4,1,1,4,4,4,4,4,4,1,1,1,1,1,1,1,1,1,1,1,1,1,1,1,1,1,2,1,1,1,1,1,3,1,1,1,1,1,1,1,1,1,1,1,1,1,1,1,6,1,1,1,5,5,5,5,5,5,4,5,5,7,6,6,6,7,6,6,1,2,1,1,1,1,1,1,1,1,1,1,3,1,1,2,5,8,6,4,4,6,7,2,2,4,5,2,3,4,4,2,5,2,1,4,2,2,4,2,5,5,5,4,2,5,5,4,5,5,5,4,4,1,1,3,1,5,5,4,4,2,2,2,4,2,2,4,5,5,5,4,4,2,2,4,4,2,4,4
Portugal,NA,NA,NA,NA,NA,NA,NA,NA,NA,NA,NA,NA,NA,NA,NA,37,NA,37,NA,NA,74,7,15:43:20,8,1,1,2,2,4,4,NA,4,5,5,7,6,2,1,2,2,3,7,6,5,2,5,2,NA,NA,NA,NA,NA,NA,NA,NA,NA,NA,NA,NA,NA,NA,NA,NA,NA,NA,NA,NA,NA,NA,NA,NA,NA,NA,NA,NA,NA,NA,NA,NA,NA,NA,NA,NA,NA,NA,NA,NA,NA,NA,NA,NA,NA,NA,NA,NA,NA,NA,NA,NA,NA,NA,NA,NA,NA,NA,NA,NA,NA,NA,NA,NA,NA,NA,NA,NA,NA,NA,NA,NA,NA,NA,NA,NA,NA,NA,NA,NA,NA,NA,NA,NA,NA,NA,NA,NA,NA,NA,NA,NA,NA,NA,NA,NA,NA,NA,NA,NA,NA,NA,NA,3,3,3,3,3,3,NA,NA,NA,NA,NA,NA,NA,NA,NA,NA,NA,NA,NA,NA,NA,NA,4,4,5,5,5,5,5,NA,NA,NA,NA,NA,NA,NA,NA,NA,NA,NA,NA,NA,NA,NA,NA,NA,NA,NA,NA,NA,NA,NA,NA,NA,NA,NA,NA,NA,NA,NA,NA,NA,NA,NA,NA,NA,NA,NA,NA,NA,NA,NA,NA,NA,NA,NA,NA,NA,NA,NA,NA,NA,NA,NA,NA,NA
Oslo,NA,NA,NA,NA,NA,NA,NA,3,NA,NA,NA,NA,NA,NA,NA,37,NA,37,NA,NA,NA,NA,13:18:18,4,1,1,2,1,4,4,4,4,3,2,8,6,1,NA,1,NA,3,1,8,1,1,NA,1,NA,NA,NA,NA,NA,NA,NA,NA,NA,NA,2,2,3,2,2,3,2,4,2,3,4,2,3,3,2,3,2,2,2,2,2,2,2,4,4,2,3,4,4,4,4,4,2,5,4,4,4,4,4,4,4,3,3,4,4,4,4,4,3,3,3,2,3,3,3,3,3,5,3,3,3,3,3,3,3,5,3,3,4,3,5,5,3,3,5,3,4,3,4,3,3,3,3,5,5,5,5,5,5,5,5,5,7,5,4,4,4,4,4,3,3,2,3,4,2,3,2,4,3,2,2,3,3,4,4,5,7,6,2,1,4,4,2,2,3,4,4,3,4,3,3,4,3,2,2,2,2,3,2,3,3,3,5,2,3,4,4,4,4,4,4,4,2,2,4,2,3,4,3,2,3,4,3,3,4,4,2,3,4,2,3,2,3,2,3,3,2,3,1
SMU,NA,NA,NA,NA,NA,NA,NA,NA,NA,NA,NA,NA,NA,NA,NA,37.1,NA,37.1,NA,NA,70,26,11:02:17,5,1,2,1,NA,4,4,5,NA,1,NA,8,1,1,NA,2,8,1,NA,NA,1,1,NA,1,NA,NA,NA,NA,NA,NA,NA,NA,NA,NA,NA,NA,NA,NA,NA,NA,NA,NA,NA,NA,NA,NA,NA,NA,NA,NA,NA,NA,NA,NA,NA,NA,NA,NA,NA,NA,NA,2,5,1,5,2,2,1,1,2,1,1,1,1,1,1,1,1,1,1,1,2,2,2,2,2,1,2,2,3,2,2,2,2,1,2,4,1,1,2,3,2,3,2,2,5,2,2,2,2,2,2,2,3,3,2,4,NA,NA,NA,NA,NA,NA,NA,NA,NA,2,4,3,3,2,2,3,1,3,1,2,1,1,1,1,1,1,1,4,2,2,4,2,2,2,4,1,3,1,4,NA,NA,NA,NA,NA,NA,NA,NA,NA,NA,NA,NA,NA,NA,NA,NA,NA,NA,NA,NA,NA,NA,NA,NA,NA,NA,NA,NA,NA,NA,NA,NA,NA,NA,NA,NA,NA,NA,NA,NA,NA,NA,NA,NA,NA,NA,NA,NA,NA,NA,NA,NA,NA,NA,NA,NA,NA
Portugal,NA,NA,NA,NA,NA,NA,NA,NA,NA,0,0,NA,NA,NA,NA,37.1,NA,37.1,NA,NA,NA,NA,08:39:21,8,1,NA,NA,NA,NA,NA,NA,NA,NA,NA,NA,NA,NA,NA,NA,NA,NA,NA,NA,NA,NA,NA,NA,NA,NA,NA,NA,NA,NA,NA,NA,NA,NA,NA,NA,NA,NA,NA,NA,NA,NA,NA,NA,NA,NA,NA,NA,NA,NA,NA,NA,NA,NA,NA,NA,NA,NA,NA,NA,NA,NA,NA,NA,NA,NA,NA,NA,NA,NA,NA,NA,NA,NA,NA,NA,NA,NA,NA,NA,NA,NA,NA,NA,NA,NA,NA,NA,NA,NA,NA,NA,NA,NA,NA,NA,NA,NA,NA,NA,NA,NA,NA,NA,NA,NA,NA,NA,NA,NA,NA,NA,NA,NA,NA,NA,NA,NA,NA,NA,NA,NA,NA,NA,NA,NA,NA,NA,NA,NA,NA,NA,NA,NA,NA,NA,NA,NA,NA,NA,NA,NA,NA,NA,NA,NA,NA,NA,NA,NA,NA,NA,NA,NA,NA,NA,NA,NA,NA,NA,NA,NA,NA,NA,NA,NA,NA,NA,NA,NA,NA,NA,NA,NA,NA,NA,NA,NA,NA,NA,NA,NA,NA,NA,NA,NA,NA,NA,NA,NA,NA,NA,NA,NA,NA,NA,NA,NA,NA,NA,NA,NA,NA,NA,NA,NA,NA,NA,NA,NA,NA,NA,NA
Poland,NA,NA,NA,NA,NA,NA,NA,NA,NA,NA,NA,NA,NA,NA,NA,37.6,NA,37.6,NA,NA,81,5,09:34:19,9,1,NA,NA,NA,NA,NA,NA,NA,NA,NA,NA,NA,NA,NA,NA,NA,NA,NA,NA,NA,NA,NA,NA,NA,NA,NA,NA,NA,NA,NA,NA,NA,NA,NA,NA,NA,NA,NA,NA,NA,NA,NA,NA,NA,NA,NA,NA,NA,NA,NA,NA,NA,NA,NA,NA,NA,NA,NA,NA,NA,NA,NA,NA,NA,NA,NA,NA,NA,NA,NA,NA,NA,NA,NA,NA,NA,NA,NA,NA,NA,NA,NA,NA,NA,NA,NA,NA,NA,NA,NA,NA,NA,NA,NA,NA,NA,NA,NA,NA,NA,NA,NA,NA,NA,NA,NA,NA,NA,NA,NA,NA,NA,NA,NA,NA,NA,NA,NA,NA,NA,NA,NA,NA,NA,NA,NA,NA,NA,NA,NA,NA,NA,NA,NA,NA,NA,NA,NA,NA,NA,NA,NA,NA,NA,NA,NA,NA,NA,NA,NA,NA,NA,NA,NA,NA,NA,NA,NA,NA,NA,NA,NA,NA,NA,NA,NA,NA,NA,NA,NA,NA,NA,NA,NA,NA,NA,NA,NA,NA,NA,NA,NA,NA,NA,NA,NA,NA,NA,NA,NA,NA,NA,NA,NA,NA,NA,NA,NA,NA,NA,NA,NA,NA,NA,NA,NA,NA,NA,NA,NA,NA,NA
